@relation stream_gen

@attribute global_id NUMERIC
@attribute timestamp NUMERIC
@attribute f1 NUMERIC
@attribute f2 NUMERIC
@attribute f3 NUMERIC
@attribute f4 NUMERIC
@attribute f5 NUMERIC
@attribute class_0 {0,1}
@attribute class_1 {0,1}

@data
18,1,-0.469974,0.552100,0.537390,0.079534,0.145070,1,0
38,1,0.141028,0.732008,0.073306,0.473869,0.403887,0,1
1,1,-0.371563,0.660170,0.512075,0.047033,0.116356,1,0
29,1,0.125486,0.851441,0.151794,0.531892,0.439988,0,1
20,1,0.171946,0.708036,0.115987,0.517440,0.474572,0,1
14,1,-0.372377,0.653757,0.530463,0.169237,0.187124,1,0
15,1,-0.451511,0.634482,0.462125,0.203847,0.141139,1,0
9,1,-0.359465,0.634770,0.546298,0.134303,0.095918,1,0
23,1,0.172370,0.702947,0.122524,0.396658,0.472876,0,1
12,1,-0.429205,0.663233,0.436287,0.171149,0.143224,1,0
6,1,-0.348608,0.697521,0.517446,0.200329,0.066544,1,0
30,1,0.178894,0.619909,0.083336,0.541354,0.498492,0,1
39,1,0.179746,0.843499,0.065924,0.459340,0.465271,0,1
22,1,0.143364,0.799641,0.061948,0.532429,0.570834,0,1
26,1,0.143656,0.715376,0.150979,0.519802,0.538668,0,1
7,1,-0.394852,0.632443,0.473689,0.128225,0.191453,1,0
4,1,-0.287006,0.626327,0.468015,0.130166,0.181698,1,0
19,1,-0.252538,0.615529,0.397008,0.153733,0.193232,1,0
2,1,-0.453063,0.681338,0.355506,0.129838,0.238646,1,0
24,1,0.166905,0.716421,0.065833,0.459574,0.481522,0,1
27,1,0.181342,0.825013,0.029551,0.524319,0.513130,0,1
34,1,0.246428,0.701747,0.225387,0.522688,0.486582,0,1
25,1,0.162270,0.795966,0.120089,0.479755,0.519206,0,1
13,1,-0.389315,0.627005,0.503712,0.171539,0.204559,1,0
3,1,-0.402533,0.663625,0.579302,0.236117,0.210038,1,0
17,1,-0.399963,0.689416,0.479149,0.171430,0.225897,1,0
31,1,0.166864,0.697705,0.104603,0.527754,0.593329,0,1
32,1,0.194594,0.713469,0.105873,0.550911,0.440811,0,1
33,1,0.163660,0.649039,0.044219,0.441738,0.459241,0,1
28,1,0.168999,0.626028,0.146460,0.528889,0.479308,0,1
5,1,-0.423849,0.663283,0.482615,0.153061,0.179832,1,0
0,1,-0.298724,0.687045,0.546115,0.131480,0.091529,1,0
8,1,-0.346084,0.641544,0.353178,0.063921,0.131385,1,0
36,1,0.211496,0.789210,0.170564,0.505144,0.512574,0,1
11,1,-0.349056,0.655672,0.393995,0.317196,0.122470,1,0
16,1,-0.324638,0.654986,0.481596,0.127320,0.115494,1,0
21,1,0.213433,0.781578,0.038798,0.493977,0.499927,0,1
37,1,0.192779,0.720721,0.070389,0.455036,0.463565,0,1
35,1,0.197322,0.799082,0.081708,0.600768,0.525822,0,1
10,1,-0.473277,0.741507,0.462381,0.100055,0.309439,1,0
44,2,-0.342311,0.654653,0.478273,0.202078,0.213950,1,0
40,2,-0.312332,0.605639,0.531244,0.170949,0.123741,1,0
59,2,-0.331722,0.622661,0.407961,0.269376,0.106963,1,0
47,2,-0.372266,0.725616,0.443830,0.246272,0.149123,1,0
69,2,0.222731,0.748277,0.192094,0.560842,0.474608,0,1
66,2,0.167213,0.760924,0.138116,0.487249,0.441201,0,1
57,2,-0.393091,0.630764,0.562972,0.211164,0.238668,1,0
54,2,-0.312211,0.634997,0.395886,0.226037,0.068901,1,0
43,2,-0.244403,0.675411,0.538238,0.226331,0.124128,1,0
53,2,-0.316148,0.684282,0.505457,0.209544,0.183221,1,0
49,2,-0.341570,0.708317,0.527349,0.112783,0.182094,1,0
79,2,0.089989,0.844023,0.085616,0.501834,0.511525,0,1
42,2,-0.315571,0.611990,0.347672,0.284988,0.051161,1,0
55,2,-0.291144,0.785837,0.517763,0.199496,0.079917,1,0
52,2,-0.328575,0.649863,0.431752,0.251872,0.135269,1,0
65,2,0.139522,0.721372,0.101012,0.489167,0.442304,0,1
51,2,-0.305413,0.691327,0.517778,0.311745,0.157592,1,0
61,2,0.215538,0.720633,0.105756,0.436972,0.446384,0,1
71,2,0.148574,0.750741,0.090271,0.425840,0.472127,0,1
67,2,0.172239,0.875073,0.144063,0.432358,0.464791,0,1
68,2,0.158519,0.665613,0.153397,0.527340,0.453490,0,1
58,2,-0.371260,0.765540,0.528680,0.215395,0.177480,1,0
74,2,0.199642,0.687464,0.122953,0.477324,0.446238,0,1
46,2,-0.372947,0.657141,0.447040,0.134063,0.151789,1,0
62,2,0.167584,0.752745,0.139278,0.416367,0.477109,0,1
48,2,-0.369004,0.720182,0.468267,0.102904,0.140897,1,0
72,2,0.151738,0.772498,0.108759,0.501917,0.486743,0,1
56,2,-0.364510,0.670851,0.412152,0.184851,0.153500,1,0
45,2,-0.232141,0.728933,0.468736,0.215556,0.119373,1,0
77,2,0.194837,0.774049,0.113672,0.457784,0.465949,0,1
50,2,-0.341171,0.755649,0.526379,0.203333,0.181454,1,0
41,2,-0.395877,0.722781,0.485058,0.243915,0.119836,1,0
75,2,0.130541,0.673839,-0.008104,0.505432,0.343285,0,1
63,2,0.079565,0.688519,0.155806,0.488098,0.494183,0,1
64,2,0.224325,0.714079,0.140134,0.512968,0.495273,0,1
60,2,0.215881,0.746858,0.112751,0.443615,0.489037,0,1
70,2,0.201125,0.717641,0.104092,0.562505,0.491422,0,1
78,2,0.069693,0.716853,0.102489,0.355394,0.510126,0,1
73,2,0.196004,0.722046,0.089915,0.451479,0.503238,0,1
76,2,0.222657,0.675011,0.177945,0.455471,0.450081,0,1
99,3,-0.228458,0.662807,0.472320,0.232740,0.093696,1,0
82,3,-0.204512,0.763261,0.512347,0.255762,0.147095,1,0
113,3,0.206297,0.710191,0.082701,0.463450,0.388595,0,1
119,3,0.114350,0.738415,0.083704,0.548659,0.464614,0,1
118,3,0.087899,0.761487,0.153370,0.474479,0.423380,0,1
105,3,0.068977,0.841856,0.093125,0.364829,0.492514,0,1
100,3,0.123405,0.737926,0.112254,0.416391,0.493666,0,1
108,3,0.155112,0.754480,0.243240,0.460447,0.461757,0,1
107,3,0.169783,0.798395,0.133912,0.473886,0.526668,0,1
103,3,0.199304,0.782194,0.088096,0.464386,0.430902,0,1
117,3,0.213148,0.786211,0.073781,0.556332,0.426822,0,1
115,3,0.210529,0.807769,0.140572,0.428752,0.477132,0,1
89,3,-0.185687,0.851089,0.443933,0.269791,0.208716,1,0
80,3,-0.225986,0.659517,0.466766,0.241532,0.110285,1,0
110,3,0.170242,0.745892,0.100368,0.486135,0.446743,0,1
93,3,-0.253923,0.687322,0.431071,0.269509,0.219989,1,0
92,3,-0.138492,0.732499,0.501837,0.323395,0.057310,1,0
101,3,0.041082,0.822302,0.126551,0.406585,0.458597,0,1
81,3,-0.272500,0.705972,0.401728,0.224356,0.208481,1,0
84,3,-0.255591,0.796754,0.486696,0.253854,0.257635,1,0
116,3,0.180688,0.747263,0.131377,0.411595,0.506332,0,1
85,3,-0.231249,0.726061,0.448001,0.261993,0.112757,1,0
96,3,-0.264196,0.731634,0.391622,0.256972,0.178698,1,0
95,3,-0.201795,0.635717,0.415712,0.235875,0.179370,1,0
106,3,0.119944,0.805923,0.120949,0.427650,0.479112,0,1
112,3,0.190759,0.869474,0.045999,0.496944,0.436843,0,1
98,3,-0.239379,0.779215,0.469989,0.290252,0.153431,1,0
102,3,0.148083,0.750530,0.111651,0.481074,0.474074,0,1
86,3,-0.221279,0.738805,0.424275,0.239592,0.144839,1,0
97,3,-0.299987,0.728985,0.441594,0.326266,0.094486,1,0
104,3,0.063840,0.756602,0.145305,0.415850,0.492474,0,1
114,3,0.231622,0.750069,0.008488,0.473914,0.484382,0,1
111,3,0.077267,0.728956,0.177560,0.440471,0.421253,0,1
90,3,-0.169048,0.696689,0.604493,0.247436,0.117656,1,0
88,3,-0.214594,0.757592,0.479805,0.218096,0.025493,1,0
87,3,-0.229846,0.673402,0.523844,0.215398,0.157176,1,0
94,3,-0.237160,0.678661,0.408255,0.270427,0.071434,1,0
83,3,-0.209818,0.731635,0.461137,0.326192,0.109333,1,0
91,3,-0.210171,0.718695,0.495311,0.268674,0.091537,1,0
109,3,0.073576,0.724974,0.130271,0.466345,0.515757,0,1
154,4,0.049983,0.736209,0.096539,0.525925,0.476756,0,1
123,4,-0.112171,0.740555,0.416734,0.417970,0.134833,1,0
137,4,-0.016278,0.697430,0.469597,0.390915,0.027546,1,0
138,4,-0.099260,0.764872,0.410218,0.259355,0.098656,1,0
150,4,0.154937,0.748662,0.113588,0.485988,0.448546,0,1
151,4,0.159630,0.882120,0.171266,0.453582,0.468429,0,1
156,4,0.063748,0.792612,0.152406,0.487539,0.449256,0,1
129,4,-0.090340,0.715120,0.486620,0.371411,0.197462,1,0
146,4,0.085951,0.795781,0.126736,0.456407,0.469721,0,1
131,4,-0.048324,0.725731,0.509375,0.402599,0.097064,1,0
125,4,-0.186808,0.809025,0.391626,0.370230,0.055074,1,0
149,4,0.200101,0.833292,0.183211,0.378564,0.471649,0,1
159,4,0.191724,0.712438,-0.030682,0.456526,0.382609,0,1
128,4,-0.121019,0.716485,0.425510,0.339580,0.119410,1,0
122,4,-0.121333,0.669807,0.441445,0.235445,0.208288,1,0
136,4,-0.014777,0.757608,0.421841,0.367693,0.061399,1,1
148,4,0.041539,0.772878,0.076763,0.473934,0.432363,1,1
157,4,0.037470,0.706186,0.104183,0.497489,0.399944,1,1
147,4,0.164884,0.646040,0.168362,0.431703,0.538971,0,1
134,4,-0.068023,0.646974,0.447895,0.326675,0.138454,1,0
139,4,-0.051138,0.765496,0.576566,0.349213,0.080432,1,0
135,4,-0.069955,0.687192,0.441132,0.356000,0.158564,1,0
126,4,-0.096364,0.626067,0.506143,0.421694,0.049054,1,0
144,4,0.146524,0.842555,0.066502,0.480606,0.450975,0,1
153,4,0.137762,0.722523,0.157457,0.455780,0.400314,0,1
141,4,0.086453,0.833779,0.165653,0.423311,0.482890,0,1
133,4,-0.189176,0.690756,0.510448,0.333457,0.144316,1,0
158,4,0.081321,0.860364,0.168795,0.439586,0.442722,0,1
152,4,0.063612,0.838122,0.183386,0.426880,0.443501,0,1
140,4,0.116634,0.892351,0.037212,0.466075,0.446122,0,1
124,4,-0.131315,0.840521,0.482176,0.329658,0.180119,1,0
143,4,0.056917,0.809066,0.118236,0.428094,0.451817,0,1
142,4,0.120098,0.721962,0.083522,0.391412,0.457988,0,1
145,4,0.133707,0.714094,0.050671,0.511628,0.336355,0,1
127,4,-0.094577,0.817648,0.430974,0.294012,0.145697,1,0
130,4,-0.062485,0.703674,0.541818,0.295404,0.149816,1,0
120,4,-0.055616,0.706964,0.491395,0.295669,0.144564,1,0
155,4,0.095989,0.846598,0.202295,0.505597,0.410147,0,1
132,4,-0.133475,0.752819,0.403582,0.333103,0.054234,1,0
121,4,-0.063996,0.740479,0.432609,0.283018,0.169685,1,0
164,5,0.111189,0.739798,0.380769,0.370685,0.177645,1,1
194,5,-0.068147,0.940361,0.025747,0.382084,0.414512,0,1
198,5,0.033747,0.748004,0.038243,0.419830,0.487723,1,1
162,5,0.088194,0.703212,0.438861,0.396338,0.125568,1,1
188,5,0.017778,0.826636,0.109694,0.455924,0.569790,1,1
182,5,0.080690,0.739821,0.120873,0.455328,0.453316,1,1
184,5,0.103267,0.691875,0.058909,0.445350,0.417827,1,1
191,5,0.004283,0.791167,0.074265,0.415915,0.408718,1,1
192,5,0.066099,0.812540,0.118909,0.438904,0.466883,1,1
178,5,0.023508,0.716342,0.496493,0.421502,0.183905,1,1
196,5,0.062059,0.744840,0.098098,0.536197,0.414117,1,1
199,5,0.077847,0.858985,0.002199,0.477508,0.422136,1,1
181,5,0.042421,0.825410,0.140925,0.403093,0.502135,1,1
195,5,0.140740,0.825292,0.151308,0.457933,0.425720,1,1
187,5,0.029576,0.821547,0.093244,0.460909,0.420018,1,1
190,5,-0.037305,0.738574,0.085367,0.442425,0.429305,1,1
180,5,0.021092,0.768494,0.182569,0.486708,0.425380,1,1
166,5,0.048323,0.735521,0.475161,0.375608,0.153096,1,1
160,5,0.104850,0.802507,0.508530,0.321076,0.191361,1,1
177,5,0.077146,0.679322,0.405366,0.442469,0.160816,1,1
168,5,0.048947,0.723139,0.432158,0.312241,0.106666,1,1
165,5,0.002069,0.842145,0.418290,0.463782,0.099648,1,1
189,5,0.061938,0.851131,0.122880,0.528656,0.406106,1,1
163,5,0.111092,0.668806,0.573664,0.443893,0.139708,1,1
197,5,0.092060,0.847282,0.097089,0.441008,0.504341,1,1
170,5,-0.087354,0.647256,0.437463,0.429068,0.119324,1,0
172,5,0.076847,0.736782,0.439116,0.474639,0.162976,1,1
193,5,-0.011686,0.879239,0.095431,0.475207,0.448570,0,1
175,5,0.123156,0.724005,0.409831,0.460842,0.177815,1,1
161,5,0.047070,0.792976,0.400659,0.363958,0.179320,1,1
171,5,0.088209,0.778716,0.471802,0.433170,0.182546,1,1
169,5,0.050819,0.758234,0.374937,0.375880,0.103849,1,1
174,5,0.040076,0.683888,0.395047,0.356007,0.078151,1,1
179,5,0.032366,0.794553,0.469266,0.354047,0.113060,1,1
176,5,0.046669,0.713842,0.422667,0.396901,0.115638,1,1
183,5,0.039649,0.847637,0.114112,0.432001,0.524687,1,1
186,5,0.093619,0.832765,0.104888,0.555766,0.354751,1,1
167,5,0.045920,0.703135,0.484063,0.480087,0.170813,1,1
173,5,0.040337,0.699610,0.490483,0.383176,0.140846,1,1
185,5,0.130080,0.790920,0.104001,0.464336,0.442834,1,1
202,6,0.070032,0.824065,0.322139,0.454508,0.045760,1,1
217,6,0.056547,0.605798,0.449304,0.392670,0.216170,1,0
227,6,0.019119,0.793613,0.095325,0.428914,0.442319,1,1
226,6,0.034740,0.711612,0.183803,0.373918,0.491863,1,1
215,6,0.130372,0.748632,0.477641,0.397051,0.133881,1,0
224,6,0.001405,0.793057,0.085900,0.370119,0.484391,1,1
231,6,-0.047208,0.754503,0.074436,0.342718,0.375285,1,1
233,6,-0.024499,0.796548,0.076865,0.422800,0.527347,1,1
200,6,0.047049,0.730845,0.502239,0.483281,0.127648,1,1
220,6,0.024978,0.762656,0.164073,0.502989,0.535178,1,1
221,6,0.036687,0.852832,0.118719,0.468072,0.390821,1,1
222,6,-0.038605,0.721260,0.120426,0.494269,0.295680,1,1
230,6,0.012953,0.810042,0.051020,0.398499,0.508005,1,1
235,6,-0.003668,0.790659,0.087780,0.441513,0.502595,1,1
236,6,-0.027062,0.759762,0.141216,0.407072,0.440481,1,1
205,6,0.003382,0.774759,0.428980,0.462808,0.146099,1,1
204,6,0.175694,0.745908,0.320717,0.463614,0.179188,1,0
228,6,-0.061639,0.894393,0.096035,0.233093,0.361328,0,1
212,6,0.109817,0.764577,0.552748,0.393375,0.100310,1,1
237,6,0.039368,0.800004,0.012953,0.337467,0.471736,1,1
234,6,0.146681,0.830905,0.183168,0.459362,0.489910,1,1
213,6,0.144616,0.723624,0.513374,0.524873,0.050050,1,0
208,6,0.068125,0.736210,0.470763,0.532855,0.033074,1,1
210,6,0.077739,0.719089,0.512619,0.476837,0.078117,1,1
219,6,0.053435,0.724606,0.480317,0.387056,0.140631,1,1
201,6,0.062822,0.758531,0.560953,0.459234,0.016255,1,1
207,6,0.077035,0.664288,0.467059,0.426051,0.146752,1,0
239,6,0.080439,0.756402,0.049946,0.421220,0.376344,1,1
238,6,-0.016635,0.844284,0.101620,0.411782,0.325274,0,1
229,6,-0.093089,0.749695,0.058901,0.509102,0.437745,0,1
211,6,0.114904,0.691627,0.343512,0.455572,0.127358,1,0
214,6,0.074887,0.754698,0.447990,0.450979,0.141132,1,1
209,6,0.039655,0.680612,0.483854,0.497696,0.127440,1,1
225,6,0.012097,0.775030,0.110011,0.281012,0.396892,1,1
232,6,0.002539,0.784687,0.134246,0.442079,0.425257,1,1
203,6,0.055796,0.678382,0.476545,0.429645,0.129236,1,1
206,6,0.098287,0.759494,0.452856,0.386598,0.037303,1,1
218,6,0.121584,0.694300,0.437130,0.461063,0.118549,1,0
223,6,-0.002788,0.883444,0.145752,0.445987,0.451705,0,1
216,6,0.116084,0.776181,0.469639,0.444147,0.117857,1,1
242,7,0.133400,0.741826,0.434337,0.493776,0.180883,1,0
260,7,-0.072019,0.740074,0.137976,0.381542,0.374990,0,1
248,7,0.153024,0.781500,0.418033,0.521217,0.026406,1,0
275,7,-0.066484,0.751428,-0.023957,0.325073,0.466903,0,1
271,7,-0.089738,0.812816,0.125488,0.316658,0.452613,0,1
274,7,-0.113398,0.800538,-0.007123,0.318050,0.437948,0,1
259,7,0.141003,0.626039,0.489433,0.482881,0.073149,1,0
270,7,-0.060970,0.803130,0.005965,0.351660,0.519237,0,1
245,7,0.118305,0.665162,0.500000,0.444130,0.131998,1,0
252,7,0.193799,0.736096,0.428412,0.462801,0.135547,1,0
255,7,0.144173,0.778722,0.439117,0.561932,0.084385,1,0
266,7,-0.157267,0.757854,0.138246,0.484311,0.492411,0,1
268,7,-0.123588,0.831268,0.026872,0.350622,0.444274,0,1
267,7,0.003781,0.758788,0.011099,0.319407,0.472572,0,1
262,7,-0.079831,0.725031,0.115032,0.372483,0.453537,0,1
278,7,-0.117174,0.719577,0.037221,0.350084,0.335301,0,1
273,7,-0.068348,0.769513,0.077812,0.366408,0.530910,0,1
243,7,0.171077,0.755839,0.484944,0.464110,0.202034,1,0
256,7,0.187838,0.703134,0.394154,0.393755,0.100001,1,0
263,7,-0.097021,0.819318,0.039764,0.349346,0.390823,0,1
240,7,0.094150,0.710553,0.468374,0.414139,0.092672,1,0
258,7,0.108512,0.782169,0.419973,0.480983,0.005684,1,0
265,7,-0.079176,0.852044,0.042160,0.402373,0.480445,0,1
279,7,-0.195807,0.858979,0.054624,0.335739,0.396118,0,1
250,7,0.148170,0.661388,0.463159,0.469547,0.104772,1,0
264,7,-0.029496,0.813250,0.092664,0.388382,0.455971,0,1
247,7,0.200068,0.625339,0.470743,0.558296,0.088437,1,0
254,7,0.114367,0.742341,0.407512,0.452464,0.130133,1,0
244,7,0.095524,0.682540,0.493458,0.452157,0.168137,1,0
251,7,0.107824,0.712829,0.438187,0.466165,0.144618,1,0
276,7,-0.066805,0.792943,0.075954,0.241797,0.405412,0,1
241,7,0.248035,0.646277,0.467130,0.443165,0.099266,1,0
253,7,0.084677,0.690397,0.498460,0.542588,0.078085,1,0
249,7,0.171439,0.707784,0.430249,0.366096,0.084627,1,0
257,7,0.079884,0.753203,0.458014,0.487690,0.099619,1,0
272,7,-0.073969,0.733481,0.109991,0.343492,0.459319,0,1
261,7,-0.207028,0.768716,0.111043,0.434515,0.449988,0,1
269,7,-0.138686,0.803395,0.059137,0.388260,0.345759,0,1
246,7,0.168799,0.772436,0.425241,0.407841,0.063661,1,0
277,7,-0.171500,0.822080,0.112977,0.384062,0.515217,0,1
305,8,-0.196455,0.721124,0.032356,0.298091,0.409039,0,1
282,8,0.163383,0.634269,0.489743,0.362614,0.132344,1,0
283,8,0.261903,0.690028,0.519268,0.466085,0.065529,1,0
292,8,0.243396,0.678618,0.436520,0.390968,0.149454,1,0
286,8,0.269954,0.661307,0.365135,0.534122,0.095801,1,0
318,8,-0.025781,0.741646,0.211095,0.307290,0.354544,0,1
287,8,0.232878,0.698593,0.514188,0.403091,0.095366,1,0
317,8,-0.090287,0.773771,0.115887,0.291550,0.425522,0,1
302,8,-0.149929,0.745982,0.147240,0.347915,0.419384,0,1
299,8,0.103008,0.689498,0.383657,0.438726,0.049321,1,0
311,8,-0.082515,0.705453,0.051769,0.299034,0.426513,0,1
295,8,0.116269,0.718589,0.433827,0.461296,0.190794,1,0
284,8,0.261224,0.670059,0.449122,0.427414,0.040301,1,0
308,8,-0.184597,0.835321,0.063037,0.293680,0.322035,0,1
300,8,-0.204099,0.800772,0.171553,0.396646,0.431809,0,1
289,8,0.179881,0.700722,0.455640,0.397420,0.191172,1,0
301,8,-0.161538,0.730167,0.061141,0.376539,0.490357,0,1
306,8,-0.126192,0.724272,0.052649,0.308998,0.366446,0,1
298,8,0.174439,0.699331,0.381246,0.390285,-0.017579,1,0
293,8,0.223233,0.606094,0.401830,0.480142,0.119872,1,0
290,8,0.169329,0.723663,0.427621,0.484214,0.096066,1,0
297,8,0.231566,0.662515,0.515521,0.465450,0.046915,1,0
281,8,0.125466,0.663989,0.441862,0.479874,0.081165,1,0
314,8,-0.205797,0.823257,0.110135,0.312875,0.405054,0,1
288,8,0.156584,0.636267,0.486928,0.498751,0.154955,1,0
285,8,0.196108,0.715128,0.453065,0.369623,0.134552,1,0
307,8,-0.145917,0.760748,0.050350,0.324350,0.341788,0,1
313,8,-0.131923,0.711633,0.109467,0.342608,0.500031,0,1
310,8,-0.123828,0.879826,0.056896,0.291122,0.395141,0,1
319,8,-0.248401,0.738127,0.127129,0.343257,0.340404,0,1
304,8,-0.157491,0.733682,0.117338,0.274133,0.462112,0,1
280,8,0.268181,0.625930,0.486567,0.417930,0.147118,1,0
316,8,-0.114744,0.847085,0.033887,0.378132,0.356890,0,1
312,8,-0.104442,0.740523,0.016965,0.300206,0.455736,0,1
291,8,0.134078,0.673023,0.427598,0.463900,0.097638,1,0
294,8,0.182989,0.676541,0.431692,0.469475,0.057327,1,0
309,8,-0.145831,0.834035,0.049279,0.282136,0.364655,0,1
315,8,-0.123534,0.733857,0.204378,0.306061,0.370261,0,1
303,8,-0.129233,0.752646,0.058758,0.319343,0.435731,0,1
296,8,0.208457,0.643361,0.412875,0.445123,0.173527,1,0
333,9,0.242518,0.655852,0.447316,0.476568,0.120452,1,0
353,9,-0.211172,0.829399,0.127520,0.292642,0.465244,0,1
335,9,0.225744,0.523178,0.451531,0.386358,0.057753,1,0
347,9,-0.265946,0.792186,0.095905,0.294725,0.431704,0,1
327,9,0.225100,0.577706,0.460736,0.369444,0.082143,1,0
341,9,-0.268666,0.717645,0.022652,0.258043,0.341621,0,1
320,9,0.159239,0.664655,0.367396,0.510117,0.009338,1,0
334,9,0.214667,0.626196,0.439739,0.412527,0.092403,1,0
329,9,0.218385,0.572374,0.367415,0.433154,0.100030,1,0
331,9,0.169215,0.563120,0.464716,0.434820,0.101029,1,0
348,9,-0.290101,0.719249,0.080679,0.369180,0.460406,0,1
324,9,0.215009,0.668623,0.460585,0.354767,0.133609,1,0
342,9,-0.241806,0.724074,0.113349,0.342778,0.305943,0,1
323,9,0.346255,0.663996,0.461240,0.360950,0.114356,1,0
351,9,-0.279134,0.797147,0.085180,0.352382,0.440123,0,1
354,9,-0.255841,0.700177,0.135727,0.388394,0.448906,0,1
350,9,-0.209100,0.758242,0.160046,0.233462,0.399663,0,1
356,9,-0.291233,0.684961,0.082605,0.304920,0.387448,0,1
332,9,0.287056,0.543901,0.536931,0.398323,0.108902,1,0
336,9,0.156277,0.584495,0.503777,0.397330,0.098534,1,0
357,9,-0.241261,0.761441,0.111580,0.172307,0.471731,0,1
349,9,-0.251238,0.790967,0.009724,0.296698,0.487970,0,1
344,9,-0.287259,0.776090,0.099365,0.312143,0.380004,0,1
359,9,-0.267405,0.749077,0.098663,0.271830,0.429625,0,1
326,9,0.177868,0.623663,0.347150,0.458129,0.089711,1,0
330,9,0.217401,0.601617,0.442936,0.480462,0.059053,1,0
345,9,-0.273701,0.803932,0.057657,0.391095,0.409607,0,1
339,9,0.223819,0.679527,0.469171,0.316258,0.160295,1,0
355,9,-0.260250,0.754768,0.107924,0.205933,0.415082,0,1
352,9,-0.223100,0.721060,0.007700,0.291405,0.495194,0,1
322,9,0.229924,0.585233,0.379706,0.358174,0.105276,1,0
358,9,-0.137649,0.691219,0.077512,0.272081,0.458433,0,1
346,9,-0.210150,0.684156,0.148420,0.252206,0.401338,0,1
321,9,0.200560,0.664273,0.428306,0.391596,0.147077,1,0
343,9,-0.194993,0.695510,0.099538,0.238650,0.383852,0,1
338,9,0.192156,0.600494,0.376059,0.375613,0.092840,1,0
328,9,0.241840,0.544242,0.403939,0.507638,0.132379,1,0
325,9,0.079884,0.566537,0.516757,0.408222,0.172673,1,0
340,9,-0.221932,0.743778,0.141658,0.197914,0.485428,0,1
337,9,0.179091,0.548036,0.393102,0.465956,0.048640,1,0
394,10,-0.219146,0.652113,0.138940,0.238523,0.332751,0,1
389,10,-0.204686,0.692719,-0.001118,0.271650,0.442594,0,1
399,10,-0.296086,0.676313,0.172498,0.245068,0.357483,0,1
366,10,0.222243,0.545741,0.488483,0.379375,0.089571,1,0
391,10,-0.309540,0.653120,0.080319,0.262564,0.393764,0,1
383,10,-0.292680,0.701244,0.041222,0.186345,0.435411,0,1
360,10,0.158506,0.573920,0.480462,0.372483,0.079862,1,0
372,10,0.253062,0.514132,0.408750,0.471327,0.071075,1,0
392,10,-0.356165,0.675829,0.019447,0.328967,0.407365,0,1
386,10,-0.365620,0.674220,0.180798,0.225394,0.275705,0,1
370,10,0.255282,0.588831,0.375994,0.363190,0.064832,1,0
363,10,0.209875,0.541797,0.390328,0.475076,0.061059,1,0
387,10,-0.392965,0.685852,0.116407,0.202595,0.331475,0,1
374,10,0.250749,0.571633,0.433323,0.370411,0.163583,1,0
390,10,-0.363495,0.734712,-0.066993,0.231121,0.295589,0,1
362,10,0.277892,0.501293,0.402426,0.356287,0.081312,1,0
373,10,0.189454,0.538289,0.547692,0.494559,0.062378,1,0
377,10,0.173905,0.686656,0.393164,0.376278,0.170913,1,0
393,10,-0.252117,0.629397,0.065008,0.136684,0.298078,0,1
376,10,0.203139,0.616348,0.468423,0.393381,0.129395,1,0
397,10,-0.300286,0.713332,0.080901,0.249580,0.426695,0,1
382,10,-0.211442,0.681988,0.063561,0.213362,0.355995,0,1
365,10,0.212081,0.569946,0.494762,0.398743,0.025621,1,0
379,10,0.298257,0.501056,0.322611,0.425256,0.089689,1,0
398,10,-0.318406,0.698549,0.063921,0.292115,0.277452,0,1
388,10,-0.368432,0.677325,0.106200,0.246478,0.385756,0,1
367,10,0.264482,0.482750,0.457754,0.375734,0.025279,1,0
361,10,0.219391,0.567371,0.346924,0.379104,0.064264,1,0
381,10,-0.380725,0.817009,0.081699,0.218724,0.439820,0,1
368,10,0.190786,0.495694,0.451678,0.366370,0.177972,1,0
375,10,0.258163,0.587112,0.434705,0.304544,0.075054,1,0
385,10,-0.238817,0.670379,0.130652,0.132387,0.346914,0,1
396,10,-0.314584,0.568547,0.106663,0.305582,0.412277,0,1
395,10,-0.296689,0.636852,0.059927,0.208955,0.436343,0,1
369,10,0.146182,0.580251,0.449735,0.305587,0.095583,1,0
378,10,0.247021,0.547461,0.462160,0.393747,0.032796,1,0
371,10,0.247815,0.510343,0.464532,0.422521,-0.001040,1,0
384,10,-0.298361,0.748348,0.041658,0.194413,0.402466,0,1
380,10,-0.344617,0.700939,0.023897,0.090294,0.407544,0,1
364,10,0.263939,0.614140,0.475959,0.421851,0.146350,1,0
400,11,0.050427,0.485021,0.371436,0.255032,0.079443,1,0
426,11,-0.299497,0.667320,0.089469,0.186826,0.379619,0,1
419,11,0.192407,0.424435,0.394482,0.292080,0.040431,1,0
416,11,0.143807,0.448726,0.281402,0.347047,0.031245,1,0
412,11,0.028667,0.445704,0.389066,0.284772,0.099390,1,0
427,11,-0.356560,0.672663,0.079197,0.257104,0.430045,0,1
403,11,0.080535,0.453285,0.518616,0.230720,0.159555,1,0
424,11,-0.351264,0.737206,0.113745,0.276849,0.393328,0,1
402,11,0.060454,0.468684,0.324099,0.329886,0.008228,1,0
436,11,-0.308744,0.761014,0.117215,0.194007,0.447125,0,1
435,11,-0.443662,0.754294,0.020768,0.128651,0.420787,0,1
437,11,-0.218889,0.719756,0.016517,0.245434,0.369116,0,1
425,11,-0.313684,0.714427,0.040846,0.096919,0.438184,0,1
408,11,0.164608,0.497409,0.342730,0.341347,0.104689,1,0
417,11,0.120443,0.438357,0.513315,0.267040,0.110841,1,0
430,11,-0.348469,0.716041,-0.078293,0.194892,0.416071,0,1
432,11,-0.357110,0.643096,0.089617,0.192656,0.345161,0,1
434,11,-0.407953,0.659349,0.043443,0.242575,0.511836,0,1
410,11,-0.051968,0.360850,0.492492,0.337145,0.070407,1,0
415,11,0.012654,0.490125,0.350162,0.328409,0.110397,1,0
433,11,-0.304418,0.570695,0.053414,0.180293,0.355547,0,1
431,11,-0.257187,0.621082,0.080180,0.222408,0.402326,0,1
405,11,0.083378,0.404353,0.474396,0.238974,0.133025,1,0
438,11,-0.413594,0.599828,0.088778,0.115209,0.331748,0,1
422,11,-0.400780,0.681605,0.003066,0.241692,0.415144,0,1
401,11,0.019933,0.492024,0.424484,0.417992,0.083681,1,0
413,11,0.114403,0.383159,0.457177,0.255798,0.119740,1,0
418,11,0.156467,0.446088,0.391459,0.410075,0.065477,1,0
407,11,-0.003423,0.526270,0.348497,0.403709,0.055793,1,0
411,11,0.072714,0.482529,0.488517,0.397433,0.092398,1,0
421,11,-0.330164,0.747697,0.102725,0.195703,0.430091,0,1
428,11,-0.333790,0.765278,0.044451,0.298590,0.268341,0,1
406,11,0.128203,0.525902,0.436872,0.322804,0.037408,1,0
429,11,-0.357508,0.760685,0.076327,0.188321,0.399732,0,1
414,11,0.095933,0.533138,0.456550,0.345844,0.066092,1,0
420,11,-0.370302,0.651633,0.052244,0.210447,0.354879,0,1
423,11,-0.321287,0.665397,0.152148,0.273565,0.307727,0,1
404,11,0.081164,0.484120,0.444250,0.310128,-0.000479,1,0
409,11,0.076801,0.516824,0.407969,0.377476,0.078119,1,0
439,11,-0.317250,0.701104,0.098380,0.176729,0.291234,0,1
469,12,-0.304108,0.595370,0.083429,0.193354,0.414630,0,1
460,12,-0.367830,0.731097,0.078242,0.152944,0.427966,0,1
456,12,-0.035469,0.412758,0.496856,0.184517,0.107276,1,0
447,12,-0.098766,0.360750,0.379653,0.311630,0.007757,1,0
478,12,-0.381385,0.676297,0.007019,0.089308,0.334292,0,1
454,12,-0.120105,0.410463,0.412708,0.189300,0.021674,1,0
475,12,-0.345482,0.657312,0.056114,0.133527,0.391949,0,1
450,12,-0.094298,0.406412,0.391613,0.164809,0.164628,1,0
445,12,-0.059521,0.479091,0.423552,0.184708,0.026941,1,0
446,12,-0.049052,0.519142,0.386726,0.196136,0.168392,1,0
462,12,-0.328105,0.734404,-0.021124,0.132184,0.281003,0,1
465,12,-0.340470,0.628114,0.081800,0.213109,0.341119,0,1
468,12,-0.450088,0.673328,0.073973,0.189776,0.395493,0,1
444,12,-0.020203,0.447045,0.338093,0.348700,0.040242,1,0
467,12,-0.326094,0.630237,0.069738,0.181913,0.327044,0,1
451,12,-0.063306,0.352350,0.400929,0.144183,0.097783,1,0
477,12,-0.360212,0.603752,0.041959,0.161074,0.318352,0,1
459,12,-0.131330,0.472137,0.416991,0.121810,0.095167,1,0
471,12,-0.285794,0.678403,0.072329,0.197346,0.346712,0,1
448,12,-0.059331,0.468359,0.394855,0.181488,0.141212,1,0
479,12,-0.381284,0.719719,0.057759,0.115841,0.389741,0,1
452,12,-0.026565,0.440700,0.442429,0.087055,0.059351,1,0
441,12,-0.088561,0.413292,0.416083,0.319646,0.092446,1,0
461,12,-0.276362,0.658598,0.108228,0.186534,0.458418,0,1
476,12,-0.317942,0.646536,0.013480,0.059348,0.365830,0,1
458,12,0.018022,0.352174,0.348429,0.162774,0.034679,1,0
463,12,-0.338003,0.663412,0.007739,0.075945,0.457563,0,1
455,12,-0.034681,0.495700,0.357625,0.200736,0.122480,1,0
466,12,-0.328228,0.573617,0.115444,0.176004,0.315612,0,1
440,12,-0.036425,0.404397,0.420998,0.196486,0.067084,1,0
443,12,-0.095008,0.404912,0.387738,0.196140,0.056648,1,0
470,12,-0.332622,0.565410,0.081989,0.137507,0.411250,0,1
457,12,0.034663,0.432346,0.494653,0.141458,0.071986,1,0
453,12,-0.107185,0.414502,0.441710,0.275958,0.153345,1,0
464,12,-0.356208,0.624641,0.070675,0.123978,0.398012,0,1
472,12,-0.353748,0.615687,0.071684,0.121827,0.437511,0,1
473,12,-0.286394,0.685387,-0.032455,0.274663,0.419514,0,1
449,12,-0.046570,0.357312,0.506485,0.159463,0.093479,1,0
474,12,-0.448891,0.660904,0.132643,0.234553,0.407262,0,1
442,12,-0.133706,0.452096,0.389784,0.128884,0.132424,1,0
507,13,-0.272677,0.574899,-0.056420,0.175453,0.367185,0,1
491,13,-0.206471,0.275657,0.383205,0.130044,0.117372,1,0
483,13,-0.149262,0.387570,0.472332,0.145029,0.107137,1,0
498,13,-0.156455,0.465135,0.298156,0.201478,0.149456,1,0
504,13,-0.315338,0.592922,0.040459,0.138543,0.402188,0,1
517,13,-0.269117,0.692048,0.065496,0.146929,0.340992,0,1
494,13,-0.218114,0.412922,0.395177,0.084664,0.096570,1,0
519,13,-0.313189,0.609728,-0.002362,0.169580,0.427410,0,1
505,13,-0.325144,0.613304,0.015342,0.119293,0.396582,0,1
514,13,-0.335308,0.590495,0.013117,0.169508,0.381783,0,1
490,13,-0.200269,0.475118,0.435866,-0.019495,0.061483,1,0
499,13,-0.177905,0.355594,0.495579,0.182618,0.095362,1,0
506,13,-0.389415,0.573977,-0.019665,0.263209,0.447620,0,1
513,13,-0.359642,0.515113,0.118934,0.247180,0.398390,0,1
488,13,-0.190082,0.329004,0.432076,0.105365,0.078079,1,0
511,13,-0.358734,0.551099,0.034263,0.171786,0.349021,0,1
495,13,-0.132744,0.434977,0.351111,0.071646,0.090004,1,0
496,13,-0.098591,0.319305,0.388180,0.140967,0.057823,1,0
480,13,-0.249794,0.361494,0.410989,0.111250,-0.011875,1,0
509,13,-0.402313,0.706948,0.129895,0.021366,0.353843,0,1
503,13,-0.321826,0.492844,-0.019644,0.131097,0.356182,1,1
512,13,-0.400118,0.604926,0.046045,0.178337,0.427066,0,1
500,13,-0.311006,0.593020,0.058483,0.154000,0.371697,0,1
497,13,-0.201605,0.368422,0.386250,0.141232,0.029431,1,0
487,13,-0.184927,0.432481,0.434308,0.082213,0.025656,1,0
489,13,-0.161044,0.462931,0.462613,0.098532,0.090327,1,0
508,13,-0.311757,0.631827,0.009521,0.228759,0.309224,0,1
501,13,-0.296283,0.556998,0.078485,0.194160,0.363007,0,1
492,13,-0.153171,0.416407,0.436037,0.048947,0.059170,1,0
502,13,-0.359996,0.603811,0.037163,0.214545,0.457689,0,1
510,13,-0.303933,0.603484,0.031012,0.073450,0.314683,0,1
485,13,-0.189900,0.412584,0.356269,0.161095,0.087666,1,0
482,13,-0.228632,0.446158,0.325209,0.152353,0.103647,1,0
481,13,-0.194780,0.349387,0.425191,0.154082,0.069586,1,0
484,13,-0.202807,0.347947,0.391244,0.188512,0.118430,1,0
515,13,-0.412812,0.581291,0.036352,0.149004,0.340300,0,1
493,13,-0.177304,0.435977,0.408929,0.197079,0.066120,1,0
486,13,-0.161109,0.446027,0.439315,0.150142,0.068343,1,0
518,13,-0.344233,0.506569,0.065335,0.079679,0.435853,0,1
516,13,-0.345131,0.589603,0.135698,0.187436,0.346668,0,1
541,14,-0.345691,0.540281,0.012070,0.176697,0.299568,0,1
545,14,-0.366659,0.615777,0.021934,0.120564,0.350160,0,1
533,14,-0.198462,0.424888,0.353505,0.186387,0.082914,1,0
526,14,-0.203849,0.359993,0.400011,0.087595,0.127022,1,0
543,14,-0.237575,0.595323,0.051569,0.281686,0.311927,0,1
525,14,-0.366894,0.416787,0.367879,0.091597,0.032693,1,0
531,14,-0.277227,0.390212,0.428758,0.169686,0.063897,1,0
520,14,-0.239211,0.537471,0.493720,-0.014397,0.146203,1,1
550,14,-0.314807,0.608126,0.030155,0.162880,0.273414,0,1
553,14,-0.338486,0.674921,0.014911,0.200659,0.360166,0,1
539,14,-0.317033,0.380312,0.378516,0.152181,0.187658,1,0
537,14,-0.259094,0.390152,0.458218,0.138824,0.079273,1,0
521,14,-0.236312,0.329986,0.519471,0.124503,0.072137,1,0
524,14,-0.222566,0.463376,0.418312,0.092458,0.059016,1,0
546,14,-0.351824,0.691783,0.070972,0.130738,0.324819,0,1
529,14,-0.190410,0.392825,0.411557,0.097654,0.106221,1,0
540,14,-0.247868,0.614345,0.057148,0.012889,0.298297,0,1
542,14,-0.326332,0.573452,0.097913,0.101540,0.370004,0,1
552,14,-0.300888,0.589373,0.130228,0.224645,0.366646,0,1
523,14,-0.250426,0.446639,0.413781,0.058803,0.061174,1,0
527,14,-0.319579,0.439489,0.318204,0.098069,-0.038584,1,1
549,14,-0.310434,0.558137,-0.025125,0.213426,0.344464,0,1
555,14,-0.295560,0.683079,0.034735,0.105622,0.352740,0,1
532,14,-0.158880,0.397266,0.353456,0.150268,0.021740,1,0
551,14,-0.236224,0.630674,0.127481,0.074071,0.287855,0,1
547,14,-0.327332,0.659469,0.001479,0.153070,0.372524,0,1
522,14,-0.213340,0.351592,0.379111,0.188297,-0.024021,1,0
530,14,-0.189067,0.350986,0.387829,0.028826,0.113842,1,0
535,14,-0.217278,0.467510,0.429305,0.154448,-0.007330,1,0
544,14,-0.331816,0.550368,0.031866,0.108040,0.355828,0,1
554,14,-0.359146,0.455973,-0.044268,0.196748,0.426266,1,1
538,14,-0.184089,0.460138,0.439558,0.133010,-0.056143,1,0
557,14,-0.331919,0.584399,0.065383,0.123656,0.429062,0,1
559,14,-0.410534,0.633879,0.087238,0.194255,0.358040,0,1
548,14,-0.345671,0.589553,0.052605,0.120661,0.373713,0,1
534,14,-0.226602,0.395422,0.471853,0.066464,0.110251,1,0
556,14,-0.370496,0.617132,0.095496,0.145221,0.402388,0,1
558,14,-0.348020,0.545214,-0.005264,0.156152,0.425924,0,1
528,14,-0.301458,0.495518,0.388543,0.140794,0.083098,1,1
536,14,-0.251770,0.393859,0.369169,0.067817,0.135778,1,0
565,15,-0.383355,0.428430,0.361330,0.100519,0.056467,1,1
567,15,-0.357017,0.473667,0.337040,0.102062,0.055331,1,1
573,15,-0.378139,0.477080,0.343535,0.083049,-0.008062,1,1
577,15,-0.292740,0.482734,0.370053,0.202273,0.000938,1,1
580,15,-0.241701,0.535009,0.072176,0.155776,0.391853,1,1
571,15,-0.269454,0.462562,0.417749,0.129867,0.085846,1,1
579,15,-0.252278,0.386489,0.379875,0.139400,0.128506,1,0
560,15,-0.311014,0.467436,0.368695,0.059219,0.053785,1,1
596,15,-0.329415,0.564120,0.055088,0.192350,0.446930,1,1
581,15,-0.345588,0.512840,-0.034122,-0.034573,0.399613,1,1
575,15,-0.307853,0.567102,0.374048,0.091627,0.077618,1,1
590,15,-0.311481,0.579987,0.001449,0.056618,0.346880,1,1
561,15,-0.361737,0.381703,0.501598,0.088692,0.133732,1,0
593,15,-0.295263,0.554552,0.083489,0.149588,0.382715,1,1
587,15,-0.357337,0.505870,0.072111,0.117916,0.311216,1,1
585,15,-0.384306,0.529063,0.054098,0.029730,0.310200,1,1
569,15,-0.318761,0.402407,0.378295,0.048774,0.071664,1,1
582,15,-0.278922,0.555808,0.008018,0.125433,0.324194,1,1
572,15,-0.285695,0.452420,0.443866,-0.009637,0.117418,1,1
594,15,-0.247534,0.509529,0.167775,0.127096,0.369148,1,1
599,15,-0.308203,0.585065,-0.074535,0.157267,0.414584,1,1
589,15,-0.266947,0.482427,0.035718,0.184682,0.338762,1,1
570,15,-0.341175,0.436826,0.377657,0.154516,0.073645,1,1
592,15,-0.332062,0.476672,0.117797,0.112251,0.410748,1,1
583,15,-0.279409,0.586075,0.053494,0.163118,0.340826,1,1
578,15,-0.387251,0.332780,0.391536,0.184746,0.152462,1,0
576,15,-0.301848,0.461801,0.409705,0.139673,0.071310,1,1
584,15,-0.380894,0.455824,0.006491,0.176172,0.309243,1,1
588,15,-0.252407,0.632864,-0.013111,0.093797,0.322441,0,1
574,15,-0.284996,0.419015,0.285521,0.094155,0.013928,1,1
566,15,-0.268346,0.421208,0.420499,-0.029449,0.029841,1,1
562,15,-0.373437,0.479737,0.418111,0.145730,0.025935,1,1
586,15,-0.217229,0.507071,0.053172,0.098724,0.405085,1,1
598,15,-0.292737,0.549929,0.031203,0.178758,0.320263,1,1
563,15,-0.430739,0.344279,0.386603,0.048947,0.024700,1,0
591,15,-0.344648,0.622312,0.059522,0.098302,0.369148,0,1
595,15,-0.341551,0.550764,0.036133,0.058501,0.379168,1,1
568,15,-0.389753,0.448579,0.453602,0.102806,0.050566,1,1
597,15,-0.239406,0.560138,0.079043,0.262388,0.367951,1,1
564,15,-0.274109,0.385643,0.453118,0.074065,0.196133,1,0
622,16,-0.303900,0.522932,0.074803,0.134131,0.384975,1,1
624,16,-0.249998,0.537438,0.019932,0.161953,0.316658,1,1
604,16,-0.453347,0.492806,0.382381,0.067227,0.003661,1,0
620,16,-0.304293,0.414365,0.011164,0.079928,0.343680,1,1
605,16,-0.292654,0.507596,0.320736,0.042774,-0.021695,1,1
639,16,-0.255015,0.555701,-0.027647,0.122806,0.275671,1,1
607,16,-0.354328,0.475885,0.371968,0.034548,0.038779,1,1
636,16,-0.225272,0.499122,-0.035601,0.084864,0.354323,1,1
630,16,-0.272751,0.398975,-0.017942,0.099231,0.408062,1,1
606,16,-0.339858,0.435928,0.332825,0.145524,0.023941,1,1
638,16,-0.311987,0.406092,0.042023,0.088343,0.364188,1,1
613,16,-0.345524,0.481821,0.379657,0.063769,-0.020829,1,1
608,16,-0.474333,0.549184,0.390424,0.071418,0.023365,1,0
616,16,-0.390993,0.505458,0.374752,0.079589,0.062122,1,1
601,16,-0.279069,0.450750,0.490327,0.042731,0.080346,1,1
603,16,-0.449815,0.432766,0.420994,0.055670,0.036011,1,0
600,16,-0.332296,0.448375,0.403631,0.139502,-0.007403,1,1
623,16,-0.306843,0.518095,0.036200,0.216448,0.320058,1,1
621,16,-0.292357,0.437984,-0.009393,0.129901,0.305546,1,1
614,16,-0.356735,0.485398,0.398173,0.121739,0.118273,1,1
632,16,-0.276950,0.511018,0.040177,0.061812,0.341284,1,1
618,16,-0.393531,0.474187,0.404084,0.140326,0.141381,1,1
612,16,-0.301725,0.502222,0.401358,0.086827,0.024438,1,1
633,16,-0.315672,0.439418,-0.004508,0.091796,0.446976,1,1
626,16,-0.329545,0.440137,0.005925,0.150708,0.312156,1,1
631,16,-0.262187,0.478376,0.063956,0.162643,0.352624,1,1
627,16,-0.329695,0.470334,0.082890,0.089853,0.308692,1,1
619,16,-0.264754,0.572260,0.398756,0.121052,0.045096,1,1
617,16,-0.356507,0.484195,0.353597,0.061313,-0.046686,1,1
615,16,-0.433605,0.516048,0.461680,0.135406,0.101125,1,1
611,16,-0.370650,0.487648,0.370299,0.026498,0.075453,1,1
609,16,-0.422523,0.585781,0.422561,0.146168,0.101283,1,0
625,16,-0.297782,0.508124,-0.012041,0.100109,0.400758,1,1
637,16,-0.353275,0.484023,0.044638,0.110923,0.465218,1,1
610,16,-0.370409,0.559723,0.322949,0.092166,0.037476,1,1
634,16,-0.223660,0.455703,0.034478,0.134308,0.412616,1,1
602,16,-0.344639,0.488143,0.332135,0.130457,-0.002475,1,1
635,16,-0.357208,0.498954,-0.022603,0.183249,0.405874,1,1
628,16,-0.317980,0.526968,0.008827,0.170617,0.375074,1,1
629,16,-0.295362,0.546779,-0.054191,0.094309,0.354041,1,1
677,17,-0.255957,0.494753,0.001472,0.182241,0.356909,1,1
664,17,-0.293973,0.521172,-0.064204,0.126183,0.257923,1,1
676,17,-0.230924,0.432756,0.015093,0.124715,0.360356,0,1
659,17,-0.335984,0.583425,0.413486,0.064255,0.057110,1,1
668,17,-0.252203,0.548752,-0.010302,0.141119,0.296755,1,1
660,17,-0.194649,0.490785,-0.075275,0.182242,0.400293,0,1
653,17,-0.317440,0.507854,0.395406,0.093807,0.018270,1,1
643,17,-0.435760,0.486381,0.469961,0.125017,0.056773,1,0
648,17,-0.440623,0.502403,0.432010,0.222604,-0.033843,1,0
640,17,-0.385752,0.498514,0.343853,0.072461,-0.009788,1,1
652,17,-0.419472,0.533742,0.387514,0.090095,0.057707,1,0
651,17,-0.419054,0.489984,0.437306,0.063206,0.059819,1,0
673,17,-0.257029,0.467456,0.074020,0.171706,0.301122,1,1
669,17,-0.231716,0.520651,0.009277,0.062037,0.351033,1,1
646,17,-0.321477,0.523888,0.318094,0.187020,0.013572,1,1
655,17,-0.422543,0.586974,0.438843,0.087275,0.163154,1,0
657,17,-0.351428,0.395072,0.449797,0.077650,0.046586,1,1
642,17,-0.338456,0.632867,0.362470,0.056963,0.094867,1,0
654,17,-0.447073,0.445693,0.456404,0.075111,0.030934,1,0
665,17,-0.293140,0.511880,-0.035268,0.176544,0.290638,1,1
674,17,-0.273034,0.489713,0.009846,0.172725,0.337197,1,1
663,17,-0.246065,0.357610,-0.055078,0.163842,0.371815,0,1
671,17,-0.197543,0.457289,0.041431,0.190094,0.329436,0,1
666,17,-0.153705,0.455199,0.019100,0.065049,0.240788,0,1
649,17,-0.340053,0.445471,0.390296,0.105687,0.103864,1,1
672,17,-0.293141,0.469571,-0.079179,0.129924,0.278859,1,1
679,17,-0.243829,0.483858,-0.066541,0.143152,0.432348,1,1
675,17,-0.252300,0.444127,-0.098449,0.174820,0.359785,1,1
670,17,-0.187755,0.479795,0.010107,0.081255,0.336731,0,1
667,17,-0.290478,0.534185,-0.066835,0.127235,0.369120,1,1
661,17,-0.223366,0.554741,-0.030148,0.116441,0.337507,0,1
650,17,-0.374994,0.508667,0.365430,0.082917,0.045034,1,1
647,17,-0.358145,0.577889,0.202513,0.073799,-0.072740,1,0
644,17,-0.379988,0.504699,0.390192,0.135093,0.011549,1,1
678,17,-0.185128,0.449128,0.079077,0.304001,0.340454,0,1
662,17,-0.209840,0.383796,-0.002677,0.164890,0.290239,0,1
658,17,-0.409392,0.573346,0.385753,0.120887,0.231945,1,0
656,17,-0.320605,0.559026,0.403918,0.083648,0.065240,1,1
641,17,-0.312697,0.642828,0.335771,0.122030,0.096398,1,0
645,17,-0.383297,0.530095,0.436999,0.087585,0.074891,1,1
686,18,-0.342680,0.537656,0.298971,0.172127,0.072430,1,0
719,18,-0.196806,0.464504,-0.096146,0.245697,0.248040,0,1
696,18,-0.383237,0.543182,0.435084,0.091278,-0.012957,1,0
716,18,-0.197024,0.500852,0.019316,0.150609,0.373735,0,1
706,18,-0.139904,0.482956,-0.040036,0.114986,0.389043,0,1
683,18,-0.420624,0.574433,0.307553,0.165367,0.079818,1,0
703,18,-0.170794,0.438530,-0.057462,0.167211,0.364964,0,1
689,18,-0.348007,0.527398,0.361361,0.073739,-0.067886,1,0
715,18,-0.091102,0.434606,-0.078558,0.204445,0.319028,0,1
681,18,-0.409164,0.537592,0.419459,0.117190,-0.001958,1,0
691,18,-0.339361,0.600621,0.372923,0.125131,0.026928,1,0
684,18,-0.394913,0.497527,0.298640,0.067608,0.071344,1,0
701,18,-0.137778,0.421948,-0.077874,0.235840,0.327166,0,1
708,18,-0.064268,0.509598,-0.013143,0.194203,0.325105,0,1
685,18,-0.201679,0.545727,0.380062,0.030331,-0.018529,1,1
705,18,-0.198167,0.485644,-0.020864,0.158352,0.309320,0,1
710,18,-0.149880,0.467367,0.021118,0.125086,0.468724,0,1
694,18,-0.320908,0.481172,0.370924,0.092810,0.001954,1,0
688,18,-0.368105,0.535003,0.280964,0.185965,0.064128,1,0
692,18,-0.306284,0.520099,0.426050,0.095117,0.080261,1,0
711,18,-0.093790,0.483516,0.017959,0.090959,0.327937,0,1
698,18,-0.374497,0.573694,0.373729,0.112000,0.045724,1,0
695,18,-0.359422,0.551445,0.434150,0.122902,-0.021405,1,0
702,18,-0.129338,0.455085,0.021970,0.162289,0.373147,0,1
718,18,-0.105449,0.528497,0.000578,0.276094,0.304719,0,1
682,18,-0.374145,0.551951,0.440763,0.159518,0.025417,1,0
687,18,-0.309095,0.541940,0.357557,0.056135,-0.068569,1,0
717,18,-0.114916,0.427345,-0.073622,0.171663,0.378916,0,1
714,18,-0.201286,0.510030,-0.076323,0.120577,0.445938,0,1
713,18,-0.088232,0.470640,0.014925,0.217528,0.435858,0,1
707,18,-0.131928,0.407975,-0.031200,0.185663,0.290582,0,1
712,18,-0.146017,0.500377,0.011550,0.205255,0.418980,0,1
690,18,-0.370342,0.608194,0.249830,0.094065,0.077624,1,0
704,18,-0.212163,0.579994,-0.041804,0.083197,0.357888,0,1
699,18,-0.252674,0.573076,0.438163,0.118221,-0.044915,1,1
680,18,-0.432129,0.512457,0.272454,0.123125,0.049770,1,0
693,18,-0.251738,0.439357,0.416945,0.143193,0.136555,1,1
697,18,-0.324604,0.518730,0.385633,-0.020369,0.026496,1,0
709,18,-0.139752,0.517665,-0.014167,0.121723,0.351728,0,1
700,18,-0.238446,0.458522,0.096703,0.196494,0.392506,0,1
720,19,-0.240902,0.587568,0.338964,0.218917,0.053924,1,0
740,19,-0.067964,0.538400,-0.025752,0.232512,0.350542,0,1
733,19,-0.309237,0.613106,0.402039,0.263738,0.102446,1,0
724,19,-0.321983,0.584259,0.353285,0.118037,0.091931,1,0
758,19,-0.173208,0.418012,0.046726,0.221047,0.340087,0,1
749,19,-0.143993,0.530870,0.038749,0.249149,0.302024,1,1
726,19,-0.243902,0.566196,0.313557,0.119407,0.111038,1,0
739,19,-0.330677,0.680737,0.390703,0.172604,0.087798,1,0
737,19,-0.291129,0.639506,0.349940,0.172357,0.084330,1,0
730,19,-0.244143,0.631362,0.337294,0.137943,-0.000911,1,0
728,19,-0.262886,0.595628,0.413598,0.176474,0.032206,1,0
732,19,-0.356600,0.666714,0.292192,0.199245,0.038020,1,0
738,19,-0.235881,0.505886,0.224864,0.168965,0.005532,1,1
721,19,-0.317144,0.694564,0.320091,0.090845,-0.023436,1,0
741,19,-0.065362,0.499635,-0.010100,0.248832,0.478161,0,1
752,19,-0.122970,0.478560,0.019969,0.117508,0.352967,0,1
722,19,-0.263333,0.477063,0.371124,0.187905,0.040515,1,0
744,19,-0.010810,0.633092,0.016273,0.167492,0.290440,0,1
755,19,-0.088824,0.422622,-0.011860,0.183415,0.313378,0,1
756,19,-0.097127,0.470624,-0.013015,0.196727,0.350210,0,1
729,19,-0.272866,0.588985,0.462216,0.241092,0.004426,1,0
723,19,-0.363319,0.575011,0.317082,0.232931,0.022143,1,0
746,19,-0.050729,0.488251,0.038545,0.225608,0.413318,0,1
736,19,-0.244544,0.684720,0.360191,0.161478,0.000417,1,0
753,19,-0.201268,0.551035,-0.084270,0.229038,0.284868,1,1
743,19,-0.171719,0.500813,-0.032827,0.256210,0.354712,1,1
751,19,-0.074398,0.520812,0.067077,0.188747,0.329222,0,1
757,19,-0.147625,0.481323,0.054711,0.200339,0.295186,0,1
759,19,-0.039636,0.447777,-0.044945,0.228036,0.326078,0,1
754,19,-0.125067,0.479513,0.015211,0.312755,0.279167,0,1
747,19,-0.123339,0.470930,-0.007367,0.190959,0.376599,0,1
745,19,-0.098747,0.478133,-0.045920,0.195288,0.346197,0,1
750,19,-0.094405,0.402897,-0.029732,0.335939,0.286431,0,1
727,19,-0.311329,0.618376,0.385130,0.267172,0.011799,1,0
725,19,-0.289759,0.551233,0.429872,0.179058,0.027366,1,0
742,19,-0.128980,0.497767,0.005364,0.218942,0.290180,0,1
734,19,-0.273983,0.720413,0.389556,0.187468,-0.018284,1,0
731,19,-0.283684,0.539173,0.380860,0.143211,0.048661,1,0
735,19,-0.278391,0.588796,0.307081,0.113243,0.021098,1,0
748,19,-0.109486,0.518791,0.019507,0.247476,0.390597,0,1
766,20,-0.204067,0.599165,0.350098,0.293909,0.091651,1,0
769,20,-0.145771,0.581295,0.386874,0.202286,0.053410,1,0
797,20,0.006172,0.449859,-0.041886,0.256760,0.332141,0,1
783,20,-0.173176,0.528794,-0.083480,0.233730,0.313441,1,1
785,20,0.014236,0.412042,0.017741,0.222690,0.361599,0,1
792,20,-0.009921,0.447194,0.003968,0.344645,0.266132,0,1
775,20,-0.129936,0.605029,0.345281,0.331235,-0.008300,1,0
772,20,-0.150105,0.574730,0.393950,0.293711,-0.024350,1,0
784,20,0.047041,0.408663,-0.059419,0.390173,0.298433,0,1
771,20,-0.162065,0.570509,0.411514,0.244883,0.039657,1,0
798,20,-0.020238,0.356863,0.035850,0.313202,0.331519,0,1
765,20,-0.019302,0.562325,0.370274,0.221245,-0.003345,1,1
762,20,-0.160739,0.615462,0.334403,0.224452,0.028973,1,0
781,20,0.000765,0.493147,-0.028022,0.314113,0.344421,0,1
787,20,-0.019397,0.470484,0.028462,0.226606,0.299835,0,1
770,20,-0.128090,0.576847,0.375761,0.190361,0.022022,1,1
791,20,-0.048011,0.441008,-0.035698,0.156267,0.390391,0,1
794,20,-0.060145,0.473756,-0.019151,0.232946,0.342579,1,1
767,20,-0.151062,0.647901,0.383079,0.330994,0.071713,1,0
780,20,0.003036,0.510273,-0.031062,0.297403,0.331518,0,1
761,20,-0.202918,0.521987,0.410228,0.220156,-0.074535,1,0
760,20,-0.109734,0.639702,0.326257,0.204868,0.022844,1,0
779,20,-0.108412,0.642413,0.329506,0.177959,0.075308,1,0
777,20,-0.155485,0.675863,0.412669,0.214313,0.020289,1,0
793,20,0.006711,0.461685,-0.049297,0.218008,0.266852,0,1
789,20,-0.063619,0.460814,-0.023208,0.361722,0.313073,0,1
768,20,-0.130321,0.529885,0.334422,0.232843,0.030350,1,1
763,20,-0.107980,0.603714,0.389655,0.273460,0.072438,1,0
764,20,-0.195029,0.628202,0.373636,0.229420,-0.015738,1,0
778,20,-0.195179,0.674980,0.281715,0.219836,0.026357,1,0
799,20,-0.073203,0.428442,-0.053802,0.205185,0.366269,0,1
790,20,-0.027374,0.466895,-0.083179,0.248688,0.355474,0,1
795,20,-0.060787,0.498044,-0.113264,0.288409,0.323427,1,1
796,20,-0.139136,0.541511,-0.095533,0.205575,0.338576,1,1
773,20,-0.048873,0.599739,0.403261,0.403773,0.063513,1,1
786,20,-0.044772,0.470892,0.015675,0.249692,0.293272,0,1
776,20,-0.187554,0.683403,0.280036,0.227495,-0.052679,1,0
774,20,-0.168050,0.614377,0.362116,0.302236,0.005231,1,0
782,20,-0.071528,0.441507,-0.055168,0.189460,0.241915,0,1
788,20,-0.048993,0.524758,0.066072,0.257417,0.329322,1,1
828,21,0.037479,0.538396,-0.062101,0.264785,0.309251,1,1
833,21,0.018694,0.405846,-0.047161,0.276372,0.258242,0,1
805,21,0.004621,0.588300,0.353518,0.323802,0.015897,1,1
829,21,0.042026,0.441473,-0.086380,0.171270,0.308779,0,1
813,21,0.038416,0.596841,0.367961,0.313731,-0.025171,1,1
822,21,0.066942,0.482914,-0.027492,0.350481,0.273649,1,1
826,21,-0.029508,0.466412,-0.069112,0.267247,0.196341,1,1
811,21,-0.001762,0.589674,0.355986,0.279860,-0.011335,1,1
802,21,-0.039675,0.621590,0.378526,0.321958,-0.016327,1,0
807,21,0.023238,0.588901,0.324981,0.351621,0.020193,1,1
814,21,0.003763,0.630433,0.293418,0.350731,0.063200,1,1
808,21,-0.006733,0.596221,0.415319,0.373376,0.122024,1,1
834,21,0.032580,0.579769,0.021328,0.225135,0.304047,1,1
824,21,0.057106,0.588379,-0.083131,0.244742,0.261577,1,1
809,21,0.037820,0.584581,0.336812,0.303924,0.073982,1,1
818,21,-0.031488,0.620345,0.336673,0.315737,0.096867,1,1
801,21,0.051879,0.507697,0.419105,0.338851,-0.015293,1,1
823,21,0.091558,0.524205,0.027229,0.312822,0.396916,1,1
820,21,0.065622,0.435330,-0.015232,0.285232,0.341178,0,1
800,21,-0.044336,0.561215,0.329129,0.319382,0.050153,1,1
821,21,-0.050837,0.547774,-0.036318,0.273065,0.342512,1,1
837,21,0.015250,0.424775,-0.000668,0.282526,0.335558,0,1
810,21,0.027868,0.527090,0.333684,0.236724,0.045245,1,1
803,21,-0.008463,0.539657,0.410206,0.216248,0.034657,1,1
835,21,0.035953,0.548772,-0.001774,0.337430,0.338292,1,1
804,21,-0.125722,0.503545,0.287352,0.330026,0.108385,1,0
806,21,-0.039595,0.523790,0.406248,0.370171,0.015727,1,1
839,21,0.040796,0.396639,-0.122933,0.319886,0.335287,0,1
827,21,0.005704,0.457415,-0.111812,0.215692,0.309456,1,1
815,21,-0.070025,0.669919,0.465853,0.279844,-0.004036,1,0
812,21,0.011081,0.530702,0.329674,0.281285,0.062818,1,1
832,21,0.009292,0.463934,-0.021088,0.240104,0.281194,1,1
836,21,0.072682,0.519558,0.026162,0.280269,0.302017,1,1
825,21,0.085890,0.502135,0.097679,0.288021,0.313986,1,1
830,21,0.056316,0.528384,-0.015415,0.315313,0.268675,1,1
831,21,0.008901,0.483500,0.017941,0.197462,0.268048,1,1
819,21,-0.014380,0.558711,0.368763,0.379150,0.040621,1,1
817,21,0.022863,0.713744,0.405080,0.348251,-0.016997,1,0
838,21,0.051475,0.526003,-0.106733,0.272271,0.314858,1,1
816,21,0.000045,0.580473,0.384729,0.420795,-0.051431,1,1
856,22,0.012986,0.587059,0.404741,0.367843,0.003462,1,1
862,22,0.117919,0.457223,-0.120825,0.336185,0.354050,0,1
879,22,0.054960,0.551017,-0.044973,0.377637,0.250191,1,1
855,22,0.075750,0.574395,0.295243,0.267422,0.053706,1,1
867,22,0.083082,0.501606,-0.012664,0.213656,0.319391,1,1
844,22,0.045764,0.658412,0.350591,0.349876,-0.042406,1,1
872,22,0.137450,0.488840,-0.085485,0.331919,0.219299,1,1
843,22,0.044322,0.591057,0.408108,0.416734,0.007521,1,1
853,22,-0.014520,0.588857,0.266247,0.337524,0.026821,1,1
841,22,0.036262,0.687460,0.299402,0.391392,-0.035542,1,0
864,22,0.129266,0.574995,0.023660,0.280049,0.295153,1,1
849,22,0.088135,0.577410,0.333222,0.348631,0.073680,1,1
846,22,0.032786,0.661523,0.417435,0.346716,-0.028764,1,0
868,22,0.064216,0.475135,-0.050157,0.318311,0.259192,1,1
876,22,0.113415,0.551281,-0.029504,0.329246,0.400377,1,1
860,22,0.107619,0.531009,-0.080736,0.343401,0.313022,1,1
848,22,0.057484,0.592556,0.318236,0.342026,-0.055805,1,1
859,22,0.019352,0.550294,0.333735,0.307425,-0.019725,1,1
871,22,0.072010,0.385525,-0.024108,0.327411,0.261793,0,1
845,22,0.076036,0.581483,0.275534,0.260196,-0.019752,1,1
869,22,0.013434,0.456830,-0.021479,0.312062,0.331710,1,1
866,22,0.112794,0.505925,0.009696,0.319317,0.330701,1,1
863,22,0.081827,0.568546,-0.093115,0.301185,0.263551,1,1
850,22,0.109667,0.608847,0.307337,0.350004,-0.059006,1,1
861,22,0.091087,0.487528,0.010573,0.347747,0.282657,1,1
875,22,0.177604,0.471986,-0.015738,0.367570,0.259880,0,1
854,22,0.041508,0.571958,0.351445,0.369927,-0.027834,1,1
842,22,0.014733,0.570083,0.343848,0.302552,0.066577,1,1
857,22,0.058893,0.646706,0.312929,0.365654,-0.002966,1,1
865,22,0.159122,0.578570,-0.028114,0.324134,0.378526,1,1
858,22,0.039392,0.571902,0.309594,0.286444,0.019061,1,1
847,22,0.066122,0.520935,0.403740,0.267323,0.144606,1,1
851,22,0.073865,0.576084,0.305103,0.428728,-0.072073,1,1
877,22,0.128034,0.498150,-0.096998,0.277061,0.248751,1,1
840,22,0.039689,0.563945,0.391292,0.459317,0.097802,1,1
870,22,0.079870,0.489738,-0.026844,0.292027,0.241787,1,1
873,22,0.055063,0.564166,0.020795,0.307286,0.383975,1,1
874,22,0.094938,0.628605,0.067159,0.308599,0.329764,1,1
852,22,0.000658,0.540417,0.288030,0.367610,0.069313,1,1
878,22,0.055741,0.428380,-0.142591,0.375542,0.246834,0,1
906,23,0.129838,0.533830,-0.032641,0.386360,0.255227,1,1
919,23,0.089790,0.566198,-0.012677,0.353670,0.331673,1,1
907,23,0.105296,0.605195,-0.104424,0.443998,0.246012,1,1
885,23,0.199636,0.527857,0.376260,0.404570,0.049849,1,1
882,23,0.237173,0.545456,0.313589,0.258361,-0.034618,1,1
900,23,0.076746,0.577170,-0.025974,0.337076,0.340483,1,1
888,23,0.122819,0.594299,0.256356,0.310876,0.064949,1,1
886,23,0.063534,0.563535,0.389114,0.397207,-0.019080,1,1
890,23,0.143438,0.607393,0.287988,0.289071,0.039141,1,1
889,23,0.104769,0.516148,0.342839,0.453857,0.042567,1,1
883,23,0.084529,0.577836,0.234571,0.381804,-0.056850,1,1
911,23,0.201388,0.548046,-0.118600,0.366780,0.279327,1,1
893,23,0.184402,0.575602,0.304426,0.411458,0.038015,1,1
910,23,0.109366,0.587154,-0.101254,0.402778,0.208514,1,1
884,23,0.104321,0.586768,0.406882,0.297662,0.092133,1,1
904,23,0.144760,0.616900,-0.030813,0.394184,0.274892,1,1
913,23,0.203210,0.597061,-0.037559,0.451110,0.269643,1,1
903,23,0.166493,0.517068,0.043555,0.321578,0.280902,1,1
898,23,0.118570,0.515912,0.276998,0.413597,-0.052902,1,1
918,23,0.146883,0.618685,-0.064768,0.408906,0.150772,1,1
887,23,0.129319,0.572996,0.391666,0.406437,-0.021168,1,1
902,23,0.108010,0.598578,-0.178079,0.412180,0.287854,1,1
912,23,0.033704,0.558012,-0.037303,0.372781,0.240474,1,1
880,23,0.161488,0.582483,0.282555,0.321913,0.006499,1,1
894,23,0.180340,0.600537,0.349558,0.389127,-0.031703,1,1
895,23,0.159958,0.546631,0.350871,0.398780,0.122036,1,1
896,23,0.071883,0.715636,0.327078,0.384493,0.027782,1,0
897,23,0.144283,0.587034,0.297223,0.325798,-0.086966,1,1
905,23,0.191942,0.586066,-0.003390,0.359586,0.196081,1,1
908,23,0.201308,0.531323,-0.107936,0.392370,0.194974,1,1
916,23,0.189131,0.586435,-0.074510,0.395461,0.297135,1,1
915,23,0.187455,0.550709,-0.035120,0.454526,0.306807,1,1
909,23,0.104008,0.544122,0.024433,0.346548,0.250983,1,1
891,23,0.089366,0.578749,0.491109,0.331662,0.024633,1,1
917,23,0.215544,0.482869,0.037738,0.334305,0.239086,1,1
914,23,0.186055,0.523789,-0.062142,0.370348,0.246761,1,1
881,23,0.160226,0.453989,0.276865,0.353528,0.033653,1,1
901,23,0.129565,0.486403,-0.089306,0.359448,0.297212,1,1
892,23,0.100456,0.453156,0.260980,0.329830,0.002655,1,1
899,23,0.031555,0.559686,0.341453,0.372186,0.000850,1,1
953,24,0.184097,0.557853,-0.132514,0.323936,0.270761,1,1
952,24,0.158480,0.549201,0.006723,0.368788,0.342709,1,1
956,24,0.166578,0.605202,-0.000022,0.417578,0.339590,1,1
938,24,0.113712,0.474357,0.269743,0.357722,-0.160332,1,1
934,24,0.200045,0.518387,0.324411,0.394373,0.022047,1,1
921,24,0.241597,0.522254,0.322505,0.359869,0.007517,1,1
942,24,0.159108,0.616251,-0.079924,0.423306,0.313096,1,1
935,24,0.075332,0.517537,0.309044,0.264950,-0.038191,1,1
933,24,0.166878,0.596086,0.296537,0.311556,-0.018606,1,1
943,24,0.147464,0.625210,-0.043457,0.308208,0.209990,1,1
951,24,0.146334,0.638489,-0.136954,0.447869,0.250560,1,1
923,24,0.161924,0.469007,0.253496,0.286224,0.031413,1,1
947,24,0.220849,0.671249,-0.110379,0.439425,0.240176,0,1
954,24,0.202846,0.671643,-0.097876,0.343124,0.264752,0,1
920,24,0.225643,0.514312,0.368708,0.358829,0.025590,1,1
931,24,0.189654,0.483208,0.392496,0.437216,0.037755,1,1
922,24,0.135125,0.590175,0.258840,0.400672,-0.017215,1,1
937,24,0.267327,0.465761,0.298098,0.323872,0.011004,1,0
927,24,0.195634,0.476615,0.322191,0.311173,-0.043324,1,1
925,24,0.160469,0.525905,0.303711,0.343490,-0.003694,1,1
958,24,0.110537,0.594726,-0.020961,0.368740,0.242838,1,1
957,24,0.193022,0.599325,-0.079350,0.355092,0.270540,1,1
955,24,0.146906,0.641851,0.013129,0.435669,0.249640,1,1
928,24,0.238643,0.432347,0.272519,0.411576,-0.023058,1,0
932,24,0.184997,0.487536,0.293892,0.251185,-0.012766,1,1
941,24,0.195343,0.628403,0.016565,0.363784,0.297792,1,1
929,24,0.155398,0.561594,0.379892,0.365590,0.067987,1,1
924,24,0.248847,0.514682,0.232489,0.400844,-0.037146,1,1
946,24,0.164645,0.625426,-0.052823,0.367538,0.214440,1,1
950,24,0.186039,0.643337,-0.024199,0.401766,0.338823,1,1
940,24,0.183216,0.512887,0.032548,0.347755,0.287403,1,1
959,24,0.192085,0.628913,0.013134,0.329582,0.365057,1,1
930,24,0.132926,0.489293,0.366976,0.431594,-0.014926,1,1
936,24,0.128655,0.511724,0.315930,0.337207,-0.027015,1,1
945,24,0.167604,0.572350,-0.018916,0.401552,0.298550,1,1
944,24,0.088326,0.628328,-0.119164,0.352473,0.306015,1,1
926,24,0.132027,0.473443,0.288888,0.366473,0.074366,1,1
939,24,0.286757,0.547007,0.231619,0.365007,-0.008746,1,0
949,24,0.217910,0.724204,-0.018765,0.433832,0.277842,0,1
948,24,0.113172,0.590770,-0.025178,0.468909,0.255635,1,1
992,25,0.071864,0.585810,-0.109134,0.415423,0.230441,0,1
989,25,0.077385,0.634610,-0.064386,0.375398,0.227312,0,1
977,25,0.129097,0.456210,0.251916,0.318324,0.003137,1,0
971,25,0.217996,0.426106,0.322017,0.276372,0.004228,1,0
969,25,0.214321,0.511665,0.384216,0.311025,-0.063541,1,0
975,25,0.154795,0.444713,0.349306,0.385899,-0.025337,1,0
979,25,0.169342,0.473821,0.309720,0.361083,0.022508,1,0
961,25,0.203552,0.499215,0.266864,0.465274,-0.087288,1,0
967,25,0.245315,0.475053,0.239671,0.340141,-0.014429,1,0
980,25,0.116590,0.557690,-0.102342,0.395070,0.319060,1,1
982,25,0.110902,0.621736,-0.056734,0.358991,0.216432,0,1
990,25,0.145888,0.651330,-0.154878,0.432023,0.218725,0,1
991,25,-0.016779,0.650735,-0.029488,0.362460,0.322182,0,1
976,25,0.132331,0.426531,0.328551,0.332580,0.003968,1,0
960,25,0.236166,0.514640,0.332639,0.251270,-0.014015,1,0
988,25,0.107847,0.615792,-0.102169,0.376472,0.303152,0,1
968,25,0.282922,0.446375,0.366239,0.348641,-0.094030,1,0
997,25,0.020403,0.555470,-0.008743,0.379850,0.258576,0,1
984,25,0.051906,0.675097,-0.075617,0.385512,0.330853,0,1
998,25,0.124180,0.626844,-0.098418,0.367477,0.245841,0,1
978,25,0.189138,0.409808,0.317584,0.359648,-0.024447,1,0
994,25,-0.002072,0.659934,-0.026163,0.368349,0.287469,0,1
986,25,0.122261,0.630252,0.082667,0.409656,0.254030,0,1
974,25,0.156845,0.528344,0.341263,0.356507,0.015977,1,1
996,25,0.051229,0.576071,-0.048073,0.379751,0.292218,0,1
970,25,0.127100,0.471593,0.277101,0.341233,0.065010,1,0
966,25,0.242720,0.425351,0.169668,0.438152,0.076009,1,0
962,25,0.305490,0.461961,0.292768,0.366064,-0.107107,1,0
963,25,0.183253,0.506667,0.326410,0.362058,-0.067765,1,0
972,25,0.145773,0.413256,0.307273,0.293600,-0.059976,1,0
987,25,-0.014440,0.595018,-0.019352,0.311124,0.257204,0,1
995,25,0.131095,0.555660,-0.109938,0.449696,0.147752,1,1
981,25,0.085346,0.615477,-0.018294,0.287198,0.308883,0,1
973,25,0.191704,0.456311,0.334880,0.330344,0.080512,1,0
999,25,0.018427,0.521679,-0.130470,0.379682,0.181596,0,1
993,25,0.157265,0.526633,-0.101604,0.330698,0.213325,1,1
964,25,0.100451,0.423887,0.246957,0.353557,0.031650,1,0
983,25,0.174117,0.597260,0.068516,0.388879,0.279139,1,1
985,25,0.059142,0.572868,-0.061181,0.395797,0.220512,0,1
965,25,0.105136,0.399293,0.331564,0.417973,-0.004613,1,0
1033,26,-0.021642,0.650353,-0.036896,0.261357,0.202685,0,1
1022,26,0.031912,0.699402,-0.047782,0.288515,0.249856,0,1
1015,26,0.146626,0.387719,0.294425,0.387777,-0.114635,1,0
1023,26,0.015787,0.666310,-0.109832,0.225564,0.223730,0,1
1021,26,-0.023245,0.540247,-0.060742,0.356817,0.220501,0,1
1017,26,0.223031,0.415869,0.323792,0.279257,0.005064,1,0
1032,26,-0.017270,0.610714,-0.038169,0.343223,0.230994,0,1
1031,26,-0.032738,0.655034,-0.065817,0.253760,0.124305,0,1
1007,26,0.205707,0.364606,0.230358,0.355144,-0.028272,1,0
1028,26,0.057342,0.610735,-0.142630,0.348409,0.214690,0,1
1012,26,0.313936,0.447507,0.308487,0.223717,-0.025533,1,0
1008,26,0.176611,0.465818,0.253535,0.331983,-0.059765,1,0
1024,26,-0.011490,0.608075,-0.019513,0.436463,0.268445,0,1
1019,26,0.206831,0.459960,0.268185,0.351388,-0.051353,1,0
1038,26,-0.047998,0.562220,-0.044919,0.349594,0.261723,0,1
1000,26,0.234501,0.474279,0.270815,0.374962,0.054876,1,0
1030,26,-0.000548,0.615608,-0.117999,0.319054,0.292791,0,1
1037,26,-0.020594,0.472765,-0.067357,0.293817,0.241441,0,1
1004,26,0.298686,0.459015,0.366419,0.348920,0.002004,1,0
1009,26,0.193801,0.453165,0.332513,0.301866,-0.101533,1,0
1027,26,0.001813,0.592069,-0.018962,0.314810,0.290975,0,1
1006,26,0.280237,0.405578,0.313022,0.386862,-0.063795,1,0
1035,26,-0.039544,0.626501,0.001305,0.287915,0.256156,0,1
1005,26,0.219091,0.451329,0.356952,0.320312,-0.010650,1,0
1025,26,-0.053014,0.578511,-0.075043,0.344710,0.263591,0,1
1034,26,-0.066931,0.617398,-0.089651,0.418905,0.239433,0,1
1010,26,0.295542,0.363036,0.313095,0.276609,0.049628,1,0
1018,26,0.256385,0.470962,0.340616,0.291374,0.052338,1,0
1002,26,0.282376,0.368122,0.208615,0.386778,-0.006982,1,0
1011,26,0.219749,0.442042,0.269371,0.437519,-0.067679,1,0
1001,26,0.273352,0.522344,0.252637,0.466448,0.015437,1,0
1016,26,0.196906,0.344216,0.268444,0.401008,-0.057941,1,0
1003,26,0.162256,0.395760,0.329614,0.366401,0.017772,1,0
1039,26,0.008930,0.642986,-0.088681,0.455082,0.258641,0,1
1029,26,-0.017652,0.660415,-0.057236,0.338670,0.225749,0,1
1013,26,0.290156,0.389473,0.272412,0.390654,-0.015322,1,0
1020,26,-0.081142,0.571351,-0.098239,0.347329,0.219533,0,1
1026,26,-0.089187,0.602573,-0.115826,0.287909,0.295832,0,1
1036,26,0.021535,0.585259,-0.133368,0.361762,0.203949,0,1
1014,26,0.174050,0.399893,0.240953,0.341723,-0.052196,1,0
1071,27,-0.074334,0.596510,-0.015516,0.289833,0.229863,0,1
1048,27,0.129943,0.316139,0.399120,0.206459,-0.028917,1,0
1041,27,0.158445,0.268891,0.300146,0.329594,0.004765,1,0
1063,27,-0.019833,0.537509,-0.039777,0.251727,0.258901,0,1
1078,27,-0.128159,0.543446,-0.104289,0.289414,0.244445,0,1
1053,27,0.187048,0.401432,0.250982,0.235785,-0.019667,1,0
1077,27,-0.190274,0.655384,-0.066871,0.219386,0.232655,0,1
1067,27,-0.112117,0.547249,-0.049447,0.341407,0.215028,0,1
1079,27,-0.109538,0.583620,-0.034062,0.236025,0.214308,0,1
1042,27,0.254979,0.440982,0.273062,0.363637,-0.048086,1,0
1065,27,-0.157487,0.519682,-0.065717,0.273536,0.218072,0,1
1056,27,0.234613,0.447345,0.351037,0.203155,-0.023635,1,0
1049,27,0.215431,0.292686,0.279083,0.337738,0.063722,1,0
1044,27,0.134103,0.380360,0.330137,0.252532,-0.020700,1,0
1066,27,-0.141074,0.549619,-0.025285,0.360624,0.215881,0,1
1068,27,-0.116356,0.603744,-0.092948,0.282979,0.208950,0,1
1054,27,0.141577,0.351148,0.347957,0.399640,-0.068464,1,0
1059,27,0.149645,0.321357,0.374331,0.321508,0.027205,1,0
1045,27,0.158097,0.327660,0.257037,0.278988,-0.130193,1,0
1073,27,-0.095646,0.520988,-0.101018,0.350765,0.216650,0,1
1075,27,-0.012709,0.635574,-0.027367,0.331546,0.241764,0,1
1057,27,0.097723,0.344441,0.232223,0.217496,-0.018267,1,0
1047,27,0.148239,0.372660,0.327542,0.327062,-0.071483,1,0
1069,27,-0.053933,0.541537,-0.058928,0.337866,0.247310,0,1
1076,27,-0.056909,0.578286,-0.055506,0.279597,0.311642,0,1
1046,27,0.188004,0.410745,0.415079,0.317958,0.026488,1,0
1040,27,0.209232,0.411279,0.454280,0.222270,-0.038258,1,0
1070,27,-0.049555,0.525803,-0.102865,0.245591,0.234115,0,1
1062,27,-0.024884,0.426875,-0.064223,0.270403,0.187620,0,1
1043,27,0.180619,0.367427,0.323344,0.266764,-0.025532,1,0
1072,27,-0.045292,0.583501,-0.044135,0.280801,0.303937,0,1
1058,27,0.215708,0.464491,0.244286,0.261517,-0.058653,1,0
1060,27,-0.094482,0.590678,-0.036815,0.223336,0.211676,0,1
1052,27,0.160964,0.346252,0.314713,0.277467,-0.058978,1,0
1074,27,-0.160929,0.543444,-0.185811,0.225986,0.277821,0,1
1061,27,-0.113609,0.582422,-0.031944,0.284790,0.210643,0,1
1055,27,0.150166,0.364941,0.404692,0.300369,0.020042,1,0
1050,27,0.243526,0.424803,0.420515,0.233253,-0.054286,1,0
1051,27,0.192526,0.403274,0.283053,0.202576,0.005562,1,0
1064,27,-0.140440,0.623672,-0.082626,0.366209,0.171361,0,1
1085,28,0.022474,0.169324,0.332946,0.141113,0.010967,1,0
1101,28,-0.257360,0.539369,-0.050457,0.238969,0.221286,0,1
1089,28,0.025963,0.271174,0.257055,0.255046,0.035237,1,0
1102,28,-0.239296,0.554522,0.000415,0.183610,0.150759,0,1
1109,28,-0.282835,0.601526,-0.019456,0.157673,0.234835,0,1
1103,28,-0.246272,0.507040,-0.014775,0.245551,0.292960,0,1
1086,28,0.047051,0.316095,0.215184,0.281155,0.027520,1,0
1118,28,-0.187342,0.489001,-0.022597,0.227114,0.293651,0,1
1116,28,-0.195493,0.620196,-0.097702,0.249890,0.232608,0,1
1092,28,0.105501,0.241447,0.295260,0.210884,-0.054064,1,0
1087,28,0.131205,0.420029,0.364977,0.183880,-0.103998,1,0
1111,28,-0.287715,0.528196,-0.038321,0.168165,0.143965,0,1
1108,28,-0.226587,0.421456,-0.112894,0.185243,0.220440,0,1
1106,28,-0.269328,0.534628,-0.077990,0.070474,0.169267,0,1
1084,28,0.127913,0.234985,0.231811,0.176067,-0.021364,1,0
1110,28,-0.166144,0.569010,-0.079975,0.239091,0.211855,0,1
1096,28,0.150201,0.329556,0.296949,0.253678,-0.054354,1,0
1115,28,-0.149652,0.592331,-0.057216,0.272482,0.181542,0,1
1093,28,0.195909,0.221224,0.332232,0.279789,-0.092751,1,0
1104,28,-0.166291,0.527609,-0.052116,0.223763,0.216667,0,1
1080,28,0.071264,0.311923,0.281996,0.163886,-0.000052,1,0
1112,28,-0.181937,0.547387,-0.071393,0.237899,0.111795,0,1
1082,28,0.150711,0.280829,0.292024,0.161296,0.016028,1,0
1113,28,-0.248087,0.584571,-0.052212,0.295177,0.170469,0,1
1099,28,0.039273,0.248310,0.437686,0.264967,0.009937,1,0
1114,28,-0.174510,0.548493,-0.107789,0.196899,0.214111,0,1
1107,28,-0.183814,0.425420,-0.098072,0.304547,0.192628,0,1
1090,28,0.073460,0.293152,0.374944,0.231375,-0.004243,1,0
1095,28,0.055530,0.366752,0.270939,0.197998,-0.001124,1,0
1094,28,0.024117,0.332390,0.379965,0.194152,-0.041463,1,0
1091,28,0.024733,0.316611,0.298293,0.249115,-0.072182,1,0
1083,28,0.129835,0.321283,0.342013,0.289401,-0.016724,1,0
1105,28,-0.182412,0.574404,-0.056561,0.273268,0.194475,0,1
1088,28,0.166627,0.288084,0.178041,0.116828,0.056173,1,0
1100,28,-0.227286,0.399303,-0.049269,0.218460,0.219738,0,1
1097,28,0.104269,0.306546,0.342846,0.229415,-0.081738,1,0
1117,28,-0.118708,0.572535,-0.034220,0.270194,0.254694,0,1
1098,28,0.146283,0.304617,0.276281,0.253824,0.038920,1,0
1081,28,0.081545,0.380223,0.150836,0.140077,-0.105486,1,0
1119,28,-0.189682,0.560912,-0.064312,0.137377,0.157827,0,1
1145,29,-0.245974,0.536407,-0.113977,0.179642,0.205269,0,1
1122,29,-0.088278,0.249981,0.318163,0.079849,-0.038098,1,0
1144,29,-0.285001,0.581549,-0.090132,0.167883,0.184360,0,1
1153,29,-0.239056,0.465868,-0.064145,0.138699,0.245707,0,1
1127,29,-0.036174,0.171265,0.305973,0.177341,0.065967,1,0
1126,29,-0.055792,0.206198,0.289899,0.118596,-0.013161,1,0
1128,29,0.047144,0.385656,0.306278,0.049277,-0.121079,1,0
1150,29,-0.271560,0.576241,-0.051531,0.148372,0.294547,0,1
1146,29,-0.272178,0.495117,0.003613,0.188996,0.210073,0,1
1135,29,-0.043730,0.264377,0.296147,0.159994,-0.060996,1,0
1158,29,-0.259169,0.557395,-0.168371,0.137460,0.204059,0,1
1149,29,-0.242404,0.469643,-0.022614,0.198543,0.216748,0,1
1157,29,-0.307047,0.472520,-0.081562,0.067262,0.216033,0,1
1136,29,0.006728,0.203513,0.197631,0.165844,0.012132,1,0
1129,29,0.003898,0.284764,0.339395,0.174675,0.008811,1,0
1154,29,-0.263840,0.545779,0.008389,0.079008,0.291340,0,1
1125,29,-0.073036,0.319520,0.304383,0.184169,-0.085190,1,0
1156,29,-0.311221,0.456850,-0.064932,0.176552,0.144929,0,1
1142,29,-0.315881,0.501507,-0.064966,0.081756,0.241923,0,1
1152,29,-0.252709,0.405820,-0.033000,0.207925,0.200875,0,1
1132,29,-0.159593,0.262429,0.304962,0.162842,-0.112750,1,0
1120,29,-0.099460,0.252923,0.314667,0.080011,-0.049707,1,0
1133,29,-0.034187,0.304677,0.266436,0.175947,-0.051834,1,0
1138,29,-0.028286,0.259734,0.324166,0.020064,-0.030449,1,0
1143,29,-0.231465,0.464190,-0.048069,0.103961,0.219844,0,1
1137,29,-0.105108,0.205086,0.261876,0.195989,0.044287,1,0
1141,29,-0.237597,0.487387,-0.069789,0.167902,0.175626,0,1
1131,29,0.065746,0.227831,0.243041,0.181681,-0.038554,1,0
1123,29,-0.068954,0.205812,0.304419,0.150646,0.019317,1,0
1130,29,-0.106108,0.344743,0.396223,0.141209,-0.084454,1,0
1121,29,-0.047562,0.204507,0.223620,0.131473,-0.056025,1,0
1139,29,-0.031223,0.181336,0.282702,0.136650,-0.040621,1,0
1140,29,-0.255296,0.540895,-0.016530,0.069047,0.110285,0,1
1155,29,-0.279991,0.537085,-0.138789,0.235170,0.273859,0,1
1124,29,-0.051790,0.245835,0.338334,0.083085,-0.133405,1,0
1134,29,-0.026758,0.286176,0.376852,0.068168,-0.031726,1,0
1159,29,-0.243364,0.461788,-0.102262,0.183320,0.267733,0,1
1151,29,-0.182524,0.474755,-0.081526,0.324093,0.140458,0,1
1148,29,-0.230492,0.572557,-0.166475,0.135498,0.193080,0,1
1147,29,-0.190953,0.473810,0.004507,0.117567,0.232409,0,1
1197,30,-0.244645,0.520665,-0.079977,0.040266,0.236054,0,1
1164,30,-0.244433,0.197897,0.342463,0.096083,-0.036761,1,0
1163,30,-0.119806,0.337129,0.361874,0.046205,-0.082715,1,0
1188,30,-0.297339,0.557098,-0.085092,0.030771,0.233790,0,1
1187,30,-0.246548,0.454948,-0.173856,0.112295,0.145987,0,1
1172,30,-0.139836,0.215699,0.259227,-0.011792,-0.070709,1,0
1184,30,-0.366777,0.499601,-0.131819,0.184200,0.211932,0,1
1191,30,-0.336191,0.511209,-0.159452,0.120849,0.222466,0,1
1180,30,-0.320382,0.452506,-0.056787,0.157062,0.222618,0,1
1190,30,-0.215484,0.449748,-0.038029,0.183112,0.241555,0,1
1167,30,-0.206943,0.236938,0.333536,0.048182,-0.018601,1,0
1194,30,-0.334045,0.547822,-0.148054,0.128608,0.282535,0,1
1173,30,-0.217294,0.242051,0.314131,0.040614,-0.144253,1,0
1169,30,-0.254846,0.226201,0.331099,-0.006811,-0.055475,1,0
1171,30,-0.171509,0.198556,0.265396,0.014803,-0.009076,1,0
1183,30,-0.273857,0.426414,-0.095602,0.147769,0.265365,0,1
1179,30,-0.172965,0.146333,0.344947,0.113717,-0.058486,1,0
1193,30,-0.309993,0.428025,-0.119225,0.064241,0.283679,0,1
1165,30,-0.187443,0.253901,0.235136,0.037500,-0.107432,1,0
1176,30,-0.263534,0.188974,0.268154,0.023378,-0.092434,1,0
1162,30,-0.282954,0.221569,0.325491,0.037652,-0.107125,1,0
1185,30,-0.373415,0.493533,-0.132758,0.215566,0.170732,0,1
1174,30,-0.190873,0.188588,0.217748,0.015397,0.035711,1,0
1189,30,-0.395602,0.551708,-0.076813,0.061100,0.221851,0,1
1198,30,-0.408834,0.531447,-0.055751,0.137992,0.172121,0,1
1192,30,-0.325477,0.572531,-0.038834,0.020866,0.194741,0,1
1178,30,-0.170448,0.248857,0.244543,0.030991,-0.081817,1,0
1177,30,-0.233939,0.153140,0.314754,0.097757,-0.029145,1,0
1196,30,-0.465745,0.490050,-0.079668,0.120212,0.148964,0,1
1160,30,-0.240461,0.243417,0.374504,0.054645,-0.126613,1,0
1170,30,-0.203573,0.265845,0.354101,0.076041,-0.039817,1,0
1161,30,-0.153763,0.212089,0.293794,0.064411,-0.058969,1,0
1168,30,-0.286842,0.140109,0.243305,0.027227,0.044276,1,0
1181,30,-0.375167,0.531687,-0.100678,0.110448,0.131409,0,1
1199,30,-0.255889,0.444932,-0.108923,0.154097,0.232759,0,1
1175,30,-0.171959,0.229231,0.320931,0.008652,-0.019392,1,0
1182,30,-0.280299,0.474936,-0.091525,0.058970,0.288754,0,1
1166,30,-0.208142,0.201782,0.301710,-0.028985,-0.184000,1,0
1195,30,-0.307176,0.440850,-0.025033,0.092675,0.209183,0,1
1186,30,-0.391559,0.423925,-0.049253,0.136917,0.255095,0,1
1228,31,-0.316649,0.487586,-0.065224,0.082579,0.161902,0,1
1203,31,-0.260738,0.260125,0.249109,-0.048164,-0.129894,1,0
1201,31,-0.260840,0.201998,0.333968,0.076472,-0.071246,1,0
1231,31,-0.285180,0.355886,-0.048032,0.049634,0.116019,1,1
1200,31,-0.215840,0.269010,0.295564,-0.056992,-0.066084,1,0
1229,31,-0.353798,0.377034,-0.143823,0.124877,0.200667,0,1
1225,31,-0.256822,0.449368,-0.095991,0.027692,0.127732,0,1
1230,31,-0.310529,0.543418,-0.109724,0.015138,0.199698,0,1
1235,31,-0.349620,0.414889,-0.028317,0.152011,0.166721,0,1
1227,31,-0.352735,0.453824,-0.056665,0.208493,0.228715,0,1
1220,31,-0.242908,0.473552,-0.039483,0.050835,0.125050,0,1
1215,31,-0.315248,0.223716,0.223446,0.052624,-0.039353,1,0
1207,31,-0.291779,0.265798,0.285932,0.029811,0.013415,1,0
1224,31,-0.432721,0.468354,-0.114618,0.024914,0.144820,0,1
1202,31,-0.122297,0.254167,0.278918,0.052885,-0.064402,1,0
1234,31,-0.290638,0.430769,-0.187261,0.087834,0.291748,0,1
1222,31,-0.253739,0.493790,-0.144285,0.094694,0.198839,0,1
1204,31,-0.311407,0.283478,0.286060,-0.025394,-0.096196,1,0
1208,31,-0.254759,0.315630,0.294686,0.073356,-0.029949,1,0
1214,31,-0.321383,0.201385,0.337088,0.014515,-0.060701,1,0
1233,31,-0.340769,0.481439,-0.134347,0.153976,0.239011,0,1
1216,31,-0.246645,0.277278,0.357499,0.019446,-0.066669,1,0
1210,31,-0.222515,0.273154,0.254941,0.038596,-0.094054,1,0
1218,31,-0.127190,0.213839,0.278492,0.090881,-0.014160,1,0
1223,31,-0.362050,0.489882,-0.070606,0.139367,0.224826,0,1
1209,31,-0.239335,0.184862,0.234304,-0.025038,-0.086420,1,0
1237,31,-0.370541,0.455296,-0.101912,0.077768,0.235784,0,1
1206,31,-0.194314,0.270321,0.304970,-0.012990,-0.044701,1,0
1232,31,-0.336114,0.445064,-0.069225,0.047173,0.216675,0,1
1217,31,-0.184921,0.217136,0.258036,0.021480,-0.066612,1,0
1205,31,-0.261261,0.333173,0.211554,0.064330,-0.028172,1,1
1239,31,-0.272984,0.468410,-0.046191,0.071057,0.232890,0,1
1213,31,-0.206783,0.255440,0.222823,0.037540,-0.132598,1,0
1212,31,-0.132224,0.256245,0.317189,0.017921,-0.090847,1,0
1236,31,-0.342539,0.336478,-0.054645,0.102962,0.166602,1,1
1221,31,-0.387710,0.493326,-0.100499,0.119624,0.199396,0,1
1211,31,-0.241057,0.261901,0.376498,0.048220,-0.092979,1,0
1226,31,-0.316383,0.446830,-0.101760,0.087778,0.238956,0,1
1219,31,-0.230615,0.154424,0.235827,0.126089,-0.017807,1,0
1238,31,-0.282636,0.368109,-0.081192,0.078824,0.172926,1,1
1279,32,-0.318576,0.363365,-0.044516,0.062905,0.243932,1,1
1242,32,-0.312583,0.178284,0.280748,0.013014,-0.066125,1,0
1249,32,-0.447963,0.331899,0.304464,-0.019382,-0.029221,1,1
1260,32,-0.260848,0.436193,-0.002846,0.037931,0.217053,0,1
1258,32,-0.340629,0.243679,0.187571,0.083237,-0.053803,1,0
1246,32,-0.309876,0.222120,0.298071,-0.037107,-0.024377,1,0
1273,32,-0.330931,0.399369,-0.094377,0.046380,0.185525,1,1
1268,32,-0.343834,0.369802,-0.109471,0.094785,0.233877,1,1
1248,32,-0.213243,0.242445,0.324894,-0.038870,-0.009068,1,0
1272,32,-0.392884,0.315507,-0.025179,-0.004524,0.192910,1,1
1269,32,-0.334161,0.384326,-0.023843,0.111487,0.159224,1,1
1267,32,-0.241126,0.348420,-0.135540,0.055177,0.229011,1,1
1274,32,-0.372353,0.335556,-0.090647,0.088215,0.180901,1,1
1245,32,-0.397480,0.266103,0.229501,0.009699,-0.036479,1,1
1256,32,-0.292290,0.223606,0.241144,0.000338,-0.050378,1,0
1264,32,-0.287489,0.372957,-0.121866,0.097871,0.186508,1,1
1255,32,-0.304894,0.336477,0.326019,0.023533,-0.071636,1,1
1247,32,-0.292173,0.237545,0.283757,-0.020232,-0.128250,1,0
1251,32,-0.377442,0.273058,0.226006,-0.012964,-0.095588,1,1
1276,32,-0.338978,0.447733,-0.119485,-0.050054,0.203708,0,1
1252,32,-0.390154,0.149418,0.281896,0.009393,-0.069701,1,0
1243,32,-0.357729,0.322467,0.277363,-0.096181,-0.025295,1,1
1240,32,-0.276425,0.297188,0.260974,-0.032974,-0.128896,1,1
1257,32,-0.276732,0.259976,0.253987,-0.016124,-0.044892,1,0
1261,32,-0.472838,0.422010,-0.115029,-0.049011,0.204947,0,1
1270,32,-0.367918,0.535049,-0.148371,0.085134,0.176587,0,1
1262,32,-0.307308,0.391150,-0.053920,-0.016162,0.214921,1,1
1271,32,-0.347625,0.413023,-0.073846,0.088340,0.205304,0,1
1254,32,-0.299946,0.302716,0.320720,0.021279,-0.024411,1,1
1250,32,-0.343667,0.264583,0.298864,-0.030654,-0.019525,1,1
1275,32,-0.264039,0.324721,-0.098502,-0.024222,0.131250,1,1
1265,32,-0.368521,0.321917,-0.077961,0.033738,0.173932,1,1
1244,32,-0.389880,0.252491,0.308495,0.044697,-0.027049,1,0
1266,32,-0.274277,0.420013,-0.052750,0.061493,0.168990,0,1
1277,32,-0.291913,0.402374,-0.073399,0.118707,0.180562,1,1
1253,32,-0.314039,0.291478,0.301528,0.067727,-0.079776,1,1
1259,32,-0.278384,0.217796,0.321566,-0.040812,-0.059693,1,0
1278,32,-0.462203,0.324639,-0.135547,-0.036765,0.161958,0,1
1263,32,-0.358824,0.394816,-0.126151,0.014527,0.190581,1,1
1241,32,-0.370026,0.232919,0.249881,-0.076740,0.012695,1,0
1316,33,-0.411803,0.353984,-0.079788,0.040425,0.250813,1,1
1302,33,-0.407178,0.300952,-0.045403,-0.027619,0.129095,1,1
1282,33,-0.408620,0.345780,0.331311,-0.057476,-0.034417,1,1
1284,33,-0.519696,0.326896,0.237554,0.025423,-0.021122,1,0
1292,33,-0.322806,0.323153,0.236658,0.037272,-0.025654,1,1
1307,33,-0.289575,0.382100,-0.142875,0.045630,0.211513,1,1
1306,33,-0.423089,0.352977,-0.013891,0.031562,0.106402,1,1
1281,33,-0.340458,0.359786,0.270164,0.065166,-0.023258,1,1
1286,33,-0.416681,0.196687,0.316519,-0.002184,-0.139275,1,0
1295,33,-0.290073,0.326922,0.316573,-0.143711,-0.083540,1,1
1312,33,-0.387913,0.341976,-0.064225,0.010279,0.131342,1,1
1305,33,-0.340925,0.322776,-0.132143,0.035365,0.246367,1,1
1293,33,-0.422216,0.330829,0.241121,-0.145959,-0.077671,1,1
1298,33,-0.477909,0.313387,0.323579,-0.088839,-0.063824,1,1
1315,33,-0.294510,0.312370,-0.092333,0.077637,0.157431,1,1
1290,33,-0.295082,0.381860,0.183837,-0.005429,-0.037640,1,1
1318,33,-0.390179,0.365230,-0.044984,0.089115,0.118947,1,1
1288,33,-0.336405,0.208863,0.414916,0.030635,-0.193042,1,1
1309,33,-0.424540,0.410823,-0.159256,-0.017438,0.153042,1,1
1294,33,-0.398434,0.390666,0.328690,0.044471,-0.196476,1,1
1289,33,-0.435149,0.260364,0.181147,-0.078382,-0.082075,1,1
1283,33,-0.374422,0.379036,0.265224,-0.035716,-0.055151,1,1
1310,33,-0.448961,0.380807,-0.097612,-0.005988,0.222370,1,1
1303,33,-0.305777,0.329205,-0.139222,0.100271,0.113107,1,1
1287,33,-0.417913,0.322765,0.193920,0.003617,-0.044829,1,1
1308,33,-0.338726,0.317245,-0.175753,-0.004090,0.280253,1,1
1296,33,-0.377335,0.195160,0.256152,-0.107200,-0.082225,1,0
1319,33,-0.322200,0.389164,-0.076995,0.026560,0.206955,1,1
1317,33,-0.329885,0.372721,-0.095257,-0.032990,0.170343,1,1
1311,33,-0.408938,0.351654,-0.075690,-0.024656,0.202680,1,1
1314,33,-0.419593,0.363322,-0.044771,-0.111639,0.167992,1,1
1301,33,-0.449461,0.266664,-0.172176,0.058543,0.103273,1,1
1300,33,-0.349006,0.317061,-0.076305,-0.072682,0.240837,1,1
1285,33,-0.431427,0.325750,0.327958,-0.119913,-0.070480,1,1
1280,33,-0.298861,0.212602,0.255125,0.024741,-0.073183,1,0
1297,33,-0.384367,0.294332,0.273905,-0.044269,-0.092205,1,1
1299,33,-0.399308,0.230006,0.259154,-0.037269,-0.054191,1,1
1304,33,-0.344238,0.343782,-0.117775,0.049447,0.211828,1,1
1313,33,-0.362802,0.471329,-0.176506,-0.019926,0.188532,0,1
1291,33,-0.448480,0.356624,0.412243,-0.030334,-0.124380,1,1
1355,34,-0.304784,0.239210,-0.139307,-0.005438,0.186582,1,1
1334,34,-0.404950,0.387694,0.280388,0.086131,-0.002364,1,1
1329,34,-0.371861,0.296961,0.214928,0.019793,-0.085091,1,1
1333,34,-0.464859,0.400821,0.288952,0.004563,-0.080295,1,1
1340,34,-0.369231,0.308453,-0.115915,-0.006140,0.168864,1,1
1331,34,-0.279249,0.390275,0.244852,-0.065510,-0.115255,1,1
1359,34,-0.334644,0.307178,-0.040192,0.037347,0.172033,1,1
1328,34,-0.382043,0.262729,0.297309,0.034788,-0.138998,1,1
1324,34,-0.396770,0.314714,0.187105,0.027174,-0.139548,1,1
1325,34,-0.354776,0.369797,0.313402,-0.045575,-0.131540,1,1
1330,34,-0.294216,0.337229,0.207132,0.095524,-0.050485,1,1
1349,34,-0.413224,0.266821,-0.018898,0.030173,0.212589,1,1
1347,34,-0.345908,0.408151,-0.094549,0.035464,0.105280,1,1
1338,34,-0.356312,0.311648,0.327482,0.076880,-0.124191,1,1
1341,34,-0.325365,0.307007,-0.125738,0.035332,0.146755,1,1
1327,34,-0.334787,0.315683,0.262212,0.066073,-0.149819,1,1
1352,34,-0.369676,0.305435,-0.049156,0.083506,0.161261,1,1
1335,34,-0.321224,0.349296,0.338578,-0.008977,-0.045203,1,1
1322,34,-0.353363,0.298112,0.278817,0.067242,-0.038226,1,1
1358,34,-0.367642,0.288274,-0.133646,-0.031523,0.213023,1,1
1337,34,-0.296953,0.306156,0.229786,-0.038363,-0.092461,1,1
1321,34,-0.365688,0.334086,0.275360,-0.076104,-0.064064,1,1
1346,34,-0.356499,0.277793,-0.166146,-0.016690,0.036883,1,1
1356,34,-0.338834,0.316815,-0.094726,-0.002526,0.114115,1,1
1353,34,-0.350547,0.267056,-0.138944,-0.113106,0.255650,1,1
1348,34,-0.350039,0.296095,-0.139142,0.024023,0.209473,1,1
1357,34,-0.427279,0.323831,-0.078663,-0.032563,0.137990,1,1
1342,34,-0.369419,0.317075,-0.067704,-0.038474,0.216298,1,1
1326,34,-0.371508,0.286830,0.228679,-0.052959,-0.093680,1,1
1323,34,-0.336584,0.318242,0.337138,-0.008953,-0.125501,1,1
1339,34,-0.379274,0.362056,0.318720,-0.083026,-0.033447,1,1
1351,34,-0.271661,0.285221,-0.144759,-0.023925,0.130918,1,1
1350,34,-0.332650,0.367339,-0.140335,-0.058828,0.214544,1,1
1344,34,-0.337493,0.396036,0.006497,-0.054392,0.151434,1,1
1332,34,-0.459582,0.294796,0.197393,0.023178,-0.137796,1,1
1336,34,-0.362577,0.322115,0.195061,-0.056440,-0.054387,1,1
1354,34,-0.430853,0.264594,-0.106320,0.082987,0.122906,1,1
1343,34,-0.353796,0.383042,-0.090909,0.020799,0.264467,1,1
1320,34,-0.424624,0.283994,0.234454,0.098845,-0.155605,1,1
1345,34,-0.402326,0.287287,-0.073688,0.036619,0.186889,1,1
1365,35,-0.223647,0.382430,0.253886,0.077956,-0.116568,1,1
1369,35,-0.307890,0.310072,0.254687,0.042773,-0.014130,1,1
1396,35,-0.294407,0.163084,-0.066657,0.062438,0.111110,0,1
1399,35,-0.266718,0.345146,-0.181284,0.018485,0.119236,1,1
1375,35,-0.176368,0.314008,0.276395,0.040462,-0.042905,1,1
1362,35,-0.348847,0.344397,0.298001,0.156601,-0.093529,1,1
1370,35,-0.202486,0.317208,0.213449,0.084030,-0.016626,1,1
1360,35,-0.124869,0.349819,0.185159,0.071569,-0.088815,1,0
1384,35,-0.271463,0.311955,-0.204876,-0.020898,0.056959,1,1
1388,35,-0.248327,0.313678,-0.124357,0.093512,0.205193,1,1
1378,35,-0.259184,0.359177,0.217323,0.107796,-0.078192,1,1
1367,35,-0.305328,0.465161,0.260896,0.193125,-0.086418,1,0
1381,35,-0.326472,0.341872,-0.108956,0.000017,0.164041,1,1
1382,35,-0.362417,0.325902,-0.050645,-0.032160,0.226250,1,1
1383,35,-0.325093,0.294702,-0.118366,0.001439,0.133911,1,1
1364,35,-0.213981,0.371962,0.212084,0.107616,-0.107002,1,1
1373,35,-0.286504,0.323996,0.231211,0.108220,-0.084124,1,1
1368,35,-0.248586,0.310275,0.133813,0.096318,0.013020,1,1
1389,35,-0.278824,0.286638,-0.090789,0.023585,0.167418,1,1
1377,35,-0.280528,0.344552,0.204090,0.092283,-0.021854,1,1
1390,35,-0.331689,0.300334,-0.255358,0.076493,0.182262,1,1
1393,35,-0.271130,0.335353,-0.147443,-0.041154,0.182255,1,1
1394,35,-0.319931,0.303500,-0.115113,0.047996,0.220806,1,1
1376,35,-0.239706,0.277509,0.161105,0.121371,-0.097005,1,1
1371,35,-0.200354,0.402464,0.229880,0.077309,-0.139619,1,1
1397,35,-0.319985,0.302270,-0.117029,0.057983,0.230881,1,1
1366,35,-0.264741,0.407986,0.265562,0.090726,-0.063083,1,1
1374,35,-0.186474,0.417009,0.184286,-0.024924,-0.044155,1,0
1392,35,-0.360985,0.308617,-0.101696,0.009208,0.126296,1,1
1387,35,-0.168946,0.243148,-0.104653,-0.013101,0.168228,1,1
1380,35,-0.366786,0.320126,-0.031270,0.036997,0.122661,1,1
1379,35,-0.250430,0.339788,0.234952,0.095571,-0.096280,1,1
1361,35,-0.306767,0.440679,0.233018,0.025917,-0.063164,1,1
1363,35,-0.271265,0.396383,0.285913,-0.060045,-0.078668,1,1
1398,35,-0.349613,0.299617,-0.107364,-0.019738,0.238512,1,1
1372,35,-0.187061,0.404989,0.248349,0.024335,-0.119110,1,0
1391,35,-0.365833,0.312088,-0.231930,0.084617,0.147867,1,1
1395,35,-0.284987,0.294377,-0.108481,0.019429,0.127937,1,1
1386,35,-0.304419,0.321556,-0.152047,-0.022295,0.169204,1,1
1385,35,-0.357964,0.204361,-0.082824,0.003164,0.104186,0,1
1421,36,-0.170960,0.356202,-0.180539,-0.022775,0.230388,1,1
1435,36,-0.235002,0.222440,-0.114082,-0.050381,0.162333,0,1
1418,36,-0.182358,0.424843,0.300401,0.128483,0.006679,1,0
1430,36,-0.222605,0.286827,-0.093568,-0.021499,0.123140,1,1
1419,36,-0.163237,0.365681,0.185288,0.084944,-0.066380,1,1
1409,36,-0.152131,0.403644,0.288157,0.186623,-0.061256,1,1
1423,36,-0.150919,0.159989,-0.100202,0.017403,0.172620,0,1
1437,36,-0.271503,0.303017,-0.034846,0.112997,0.272075,0,1
1413,36,-0.225203,0.363076,0.232258,0.181863,-0.175280,1,1
1412,36,-0.143399,0.365830,0.215745,0.123100,-0.101454,1,1
1416,36,-0.031456,0.397996,0.282640,0.102799,-0.149119,1,0
1425,36,-0.189309,0.204217,-0.066287,0.019711,0.115858,0,1
1436,36,-0.184376,0.274473,-0.110751,0.055750,0.179576,1,1
1424,36,-0.300740,0.310250,-0.069060,-0.001917,0.202329,0,1
1420,36,-0.231633,0.302962,-0.067355,0.082069,0.143106,1,1
1406,36,-0.175410,0.345584,0.316087,0.229932,-0.081676,1,1
1404,36,-0.113855,0.398878,0.179731,0.152669,-0.149760,1,0
1427,36,-0.300640,0.214016,-0.162650,-0.045610,0.131077,0,1
1417,36,-0.221511,0.385082,0.236214,0.126101,-0.117623,1,1
1414,36,-0.112682,0.322068,0.352934,0.143967,-0.086718,1,1
1431,36,-0.306907,0.285774,-0.113338,0.076375,0.115926,0,1
1400,36,-0.126384,0.385014,0.211292,0.112736,-0.135504,1,1
1432,36,-0.136473,0.192925,-0.136244,-0.003497,0.265942,0,1
1405,36,-0.076699,0.350674,0.261326,0.146191,-0.079333,1,0
1408,36,-0.042862,0.386873,0.277991,0.146288,-0.096144,1,0
1428,36,-0.268279,0.327833,-0.172648,0.051642,0.177271,0,1
1401,36,-0.093635,0.470846,0.270313,0.073439,-0.105524,1,0
1402,36,-0.134679,0.393468,0.288050,0.124266,-0.035222,1,1
1433,36,-0.279504,0.291054,-0.137512,0.007299,0.221352,0,1
1434,36,-0.253832,0.286156,-0.144579,0.053196,0.106448,0,1
1439,36,-0.213540,0.383676,-0.048897,0.144375,0.134819,1,1
1403,36,-0.022081,0.341675,0.191554,0.149291,-0.196027,1,0
1415,36,-0.094519,0.355877,0.256700,0.201637,-0.089926,1,0
1429,36,-0.269543,0.196622,-0.110154,0.090174,0.077930,0,1
1407,36,-0.064968,0.428867,0.312343,0.162515,-0.047358,1,0
1438,36,-0.173718,0.311598,-0.123591,-0.003105,0.224810,1,1
1426,36,-0.156626,0.218501,-0.041374,0.101126,0.226568,0,1
1411,36,-0.197300,0.318048,0.249407,0.098421,-0.112683,1,1
1410,36,-0.141541,0.360976,0.267688,0.239523,-0.144599,1,1
1422,36,-0.146081,0.280576,-0.181400,-0.009015,0.272260,1,1
1478,37,-0.084521,0.211582,-0.041558,0.141586,0.195225,0,1
1467,37,-0.031200,0.333373,-0.132548,0.084317,0.154867,1,1
1444,37,-0.041029,0.377355,0.202932,0.191136,-0.008538,1,1
1440,37,0.037702,0.399341,0.223234,0.249320,-0.121036,1,0
1466,37,-0.086684,0.302102,-0.110097,0.198707,0.067453,1,1
1465,37,-0.143460,0.314113,-0.088292,0.142277,0.201193,0,1
1454,37,0.010419,0.383044,0.192565,0.155718,-0.141425,1,1
1447,37,-0.002440,0.382955,0.257046,0.194759,-0.138465,1,1
1469,37,-0.081012,0.203874,-0.069759,0.119606,0.073644,0,1
1475,37,-0.106081,0.327137,-0.179046,0.088993,0.139165,1,1
1474,37,-0.083018,0.256177,-0.190716,0.145731,0.188427,0,1
1449,37,0.013173,0.297267,0.263592,0.219351,-0.075917,1,1
1457,37,0.056894,0.438848,0.251113,0.208820,-0.063143,1,0
1462,37,-0.142352,0.313646,-0.112478,0.211025,0.076804,0,1
1477,37,0.026253,0.252633,-0.036444,0.160370,0.166968,1,1
1442,37,-0.009528,0.318771,0.230051,0.109673,-0.144777,1,1
1456,37,0.044562,0.407097,0.241356,0.282012,-0.165016,1,0
1473,37,-0.082591,0.215262,-0.095891,0.160995,0.136389,0,1
1443,37,0.057167,0.346339,0.234782,0.208261,-0.060437,1,0
1470,37,-0.154126,0.382154,-0.145650,0.096989,0.142953,0,1
1459,37,0.005567,0.406852,0.246702,0.258657,-0.065292,1,0
1441,37,-0.025279,0.359738,0.272266,0.154184,-0.077743,1,1
1463,37,-0.086177,0.197337,-0.141227,0.087459,0.081197,0,1
1458,37,0.017077,0.417756,0.328891,0.245611,-0.150073,1,0
1448,37,0.047143,0.481680,0.158604,0.175004,-0.088874,1,0
1461,37,-0.111822,0.283052,-0.052249,0.112176,0.199447,0,1
1476,37,-0.124618,0.230846,-0.189005,0.196626,0.196837,0,1
1452,37,0.027646,0.345108,0.226181,0.224647,-0.057158,1,1
1453,37,-0.046326,0.319309,0.300062,0.235104,-0.195503,1,1
1460,37,-0.092580,0.301993,-0.114688,0.101496,0.194746,1,1
1445,37,-0.007551,0.397240,0.206799,0.270134,-0.038063,1,1
1451,37,0.044252,0.334939,0.282551,0.286497,-0.036140,1,1
1450,37,0.022306,0.458681,0.214720,0.256652,-0.169709,1,0
1455,37,0.023776,0.344338,0.170828,0.234958,-0.057981,1,1
1446,37,0.060142,0.403900,0.260508,0.274240,-0.066432,1,0
1479,37,-0.090697,0.226195,-0.162415,0.085631,0.190562,0,1
1464,37,-0.060503,0.274364,-0.084450,0.106070,0.119692,1,1
1471,37,-0.077684,0.218019,-0.216727,0.065938,0.214351,0,1
1468,37,-0.124257,0.246015,-0.125102,0.029835,0.104369,0,1
1472,37,-0.133241,0.282860,-0.146246,0.067690,0.177670,0,1
1518,38,0.015317,0.257828,-0.103560,0.115250,0.186961,1,1
1515,38,0.005691,0.285830,-0.143288,0.148005,0.185697,1,1
1505,38,0.016806,0.226585,-0.166534,0.218698,0.194378,0,1
1484,38,0.113319,0.266509,0.228840,0.196308,-0.135736,1,1
1506,38,-0.015300,0.320976,-0.080512,0.116122,0.168986,1,1
1516,38,0.016366,0.245033,-0.089528,0.098272,0.127527,1,1
1497,38,0.208881,0.361359,0.150604,0.302359,-0.105116,1,0
1481,38,0.098962,0.343458,0.206471,0.243833,-0.118379,1,1
1489,38,0.094463,0.427676,0.165690,0.150482,-0.070743,1,0
1494,38,0.111104,0.290812,0.253371,0.182997,-0.029469,1,1
1511,38,-0.005867,0.301669,-0.167149,0.212536,0.123969,1,1
1498,38,0.017608,0.402564,0.120941,0.291529,-0.066528,1,1
1509,38,0.025554,0.229845,-0.103183,0.134258,0.058257,0,1
1519,38,-0.061114,0.269273,-0.169418,0.249056,0.150508,0,1
1514,38,-0.045071,0.228143,-0.146079,0.129545,0.267324,0,1
1504,38,-0.020603,0.228488,-0.116171,0.157199,0.129278,0,1
1486,38,0.098304,0.301386,0.191707,0.232883,-0.113162,1,1
1493,38,0.110064,0.351797,0.273881,0.170294,-0.083650,1,1
1491,38,0.169523,0.388253,0.260070,0.251604,-0.122667,1,0
1508,38,0.070205,0.275488,-0.126161,0.170091,0.192565,1,1
1490,38,0.017244,0.381287,0.290917,0.205542,-0.003342,1,1
1483,38,0.127802,0.411301,0.219945,0.233878,-0.100407,1,0
1517,38,0.042231,0.127263,-0.151333,0.078332,0.084119,0,1
1507,38,0.062543,0.179001,-0.154983,0.206570,0.150223,0,1
1513,38,0.043180,0.236116,-0.238378,0.121940,0.177459,1,1
1512,38,-0.063804,0.214836,-0.151355,0.211010,0.147896,0,1
1492,38,0.116593,0.360475,0.196204,0.248521,-0.080787,1,0
1500,38,0.045249,0.215216,-0.002237,0.115704,0.201387,0,1
1488,38,0.071340,0.262655,0.269167,0.237675,-0.082255,1,1
1502,38,0.016907,0.241499,-0.106118,0.136705,0.173522,1,1
1499,38,0.026178,0.363280,0.219237,0.262542,-0.100685,1,1
1501,38,0.023561,0.284303,-0.094378,0.170726,0.183447,1,1
1480,38,0.045144,0.424249,0.297159,0.301945,-0.105750,1,0
1495,38,0.059564,0.372342,0.263676,0.238079,0.020876,1,1
1510,38,-0.105058,0.240064,-0.177228,0.093073,0.226425,0,1
1487,38,0.057657,0.399854,0.285436,0.274894,-0.004937,1,1
1485,38,0.042670,0.321247,0.182401,0.266873,-0.027558,1,1
1496,38,-0.018395,0.461862,0.258021,0.208605,-0.026122,1,0
1503,38,0.048856,0.241760,-0.087228,0.176217,0.274450,1,1
1482,38,0.123482,0.399020,0.227152,0.243617,-0.147939,1,0
1534,39,0.107029,0.312482,0.266402,0.221729,-0.045639,1,1
1528,39,0.150333,0.386494,0.199161,0.287257,-0.060785,1,1
1526,39,0.105047,0.342332,0.213858,0.274215,-0.080351,1,1
1556,39,0.021561,0.259161,-0.148473,0.149640,0.094949,1,1
1553,39,-0.013979,0.281478,-0.212012,0.220694,0.116806,0,1
1535,39,0.161896,0.420494,0.269557,0.228474,-0.177215,1,0
1543,39,0.057886,0.198148,-0.183111,0.162950,0.177830,0,1
1524,39,0.152060,0.538958,0.194500,0.284419,-0.100766,1,0
1559,39,0.057502,0.197258,-0.144405,0.241373,0.127437,0,1
1558,39,0.026838,0.345997,-0.188230,0.251761,0.176177,1,1
1544,39,0.097798,0.240010,-0.161113,0.247562,0.138651,1,1
1520,39,0.094894,0.372579,0.251697,0.245986,-0.056584,1,1
1521,39,0.113774,0.297073,0.228582,0.324633,-0.111771,1,1
1531,39,0.131539,0.342754,0.219377,0.222889,0.007304,1,1
1546,39,0.064251,0.328045,-0.129734,0.230707,0.122794,1,1
1538,39,0.105870,0.353877,0.293257,0.302781,-0.032689,1,1
1557,39,0.147089,0.207467,-0.149626,0.250466,0.167954,1,1
1522,39,0.109102,0.314268,0.270391,0.220892,-0.149387,1,1
1527,39,0.000746,0.407351,0.154409,0.247933,-0.134466,1,0
1554,39,0.042987,0.291688,-0.102997,0.173057,0.166432,1,1
1529,39,0.098700,0.352730,0.209901,0.257585,-0.086240,1,1
1550,39,0.093796,0.273259,-0.161612,0.165168,0.103505,1,1
1540,39,0.102052,0.254051,-0.150873,0.202275,0.152545,1,1
1548,39,0.027978,0.266434,-0.247098,0.157555,0.133286,1,1
1537,39,0.148205,0.344529,0.288481,0.229406,-0.074700,1,1
1555,39,0.061311,0.275349,-0.115325,0.103586,0.182244,1,1
1542,39,0.063426,0.186609,-0.111734,0.243018,0.219617,0,1
1539,39,-0.024618,0.396044,0.234196,0.223973,-0.045667,1,0
1551,39,0.156134,0.340234,-0.110416,0.144150,0.132862,1,1
1545,39,0.069941,0.302304,-0.197469,0.241625,0.217970,1,1
1523,39,0.110817,0.332460,0.124450,0.346772,-0.120462,1,1
1547,39,0.080020,0.346853,-0.193045,0.158900,0.243735,1,1
1532,39,0.182989,0.338097,0.223984,0.130457,-0.005590,1,1
1552,39,-0.042197,0.314229,-0.163322,0.046632,0.185034,0,1
1536,39,0.121089,0.249592,0.163523,0.334600,-0.106202,1,1
1549,39,0.050660,0.295725,-0.204942,0.189295,0.141194,1,1
1525,39,0.095327,0.257058,0.244639,0.228960,-0.103279,1,1
1533,39,0.070716,0.387763,0.195435,0.305004,-0.121546,1,1
1530,39,0.170849,0.314355,0.242581,0.348092,-0.110969,1,1
1541,39,0.002015,0.265642,-0.111628,0.199516,0.181804,0,1
1560,40,0.282675,0.395691,0.230356,0.335148,-0.081577,1,0
1590,40,0.131116,0.325651,-0.202569,0.281717,0.163881,1,1
1561,40,0.229187,0.294380,0.168747,0.303316,-0.136770,1,1
1568,40,0.225679,0.339586,0.209045,0.355665,-0.141737,1,1
1584,40,0.131268,0.287008,-0.130360,0.092942,0.224169,1,1
1576,40,0.127229,0.210405,0.283744,0.300417,-0.132576,1,1
1566,40,0.256953,0.337456,0.207680,0.179576,-0.152532,1,1
1591,40,0.052038,0.312357,-0.136898,0.233168,0.192812,1,1
1582,40,0.086744,0.282974,-0.159206,0.272457,0.206004,1,1
1564,40,0.236864,0.312804,0.233853,0.283467,-0.088037,1,1
1580,40,0.084563,0.259556,-0.223096,0.111586,0.153320,1,1
1598,40,0.141747,0.217317,-0.177541,0.301788,0.163206,1,1
1585,40,0.129858,0.262587,-0.091299,0.233461,0.130212,1,1
1562,40,0.197616,0.354399,0.147777,0.181208,-0.141964,1,1
1581,40,0.149747,0.256621,-0.085032,0.160996,0.159668,1,1
1565,40,0.156920,0.271621,0.144296,0.322388,-0.147739,1,1
1567,40,0.218162,0.262631,0.278287,0.310458,-0.096333,1,1
1599,40,0.170481,0.264357,-0.171014,0.278789,0.182183,1,1
1597,40,0.124942,0.257265,-0.071826,0.201038,0.117228,1,1
1570,40,0.200546,0.337980,0.218209,0.258533,-0.058092,1,1
1594,40,0.107366,0.267305,-0.181058,0.168228,0.187157,1,1
1583,40,0.126983,0.316777,-0.209054,0.232097,0.161534,1,1
1571,40,0.184606,0.276595,0.276513,0.298784,-0.142191,1,1
1587,40,0.126867,0.344162,-0.171664,0.218385,0.166763,1,1
1579,40,0.219379,0.339798,0.244201,0.271768,-0.074928,1,1
1592,40,0.097682,0.262971,-0.119392,0.251627,0.091297,1,1
1596,40,0.095918,0.241568,-0.114795,0.270094,0.242382,1,1
1589,40,0.106205,0.267249,-0.139603,0.204131,0.161050,1,1
1573,40,0.125505,0.319495,0.253703,0.179289,-0.085785,1,1
1586,40,0.133029,0.225051,-0.125225,0.207102,0.182627,1,1
1569,40,0.175032,0.361125,0.218237,0.317261,-0.140069,1,1
1574,40,0.194185,0.214565,0.245095,0.288079,-0.150396,1,1
1577,40,0.207044,0.281402,0.218605,0.267711,-0.080082,1,1
1563,40,0.176575,0.316892,0.272138,0.253099,-0.135690,1,1
1595,40,0.113333,0.303771,-0.175135,0.300761,0.105561,1,1
1578,40,0.230416,0.334971,0.203432,0.225153,-0.151540,1,1
1575,40,0.215124,0.347262,0.123529,0.320571,-0.167804,1,1
1588,40,0.123856,0.270218,-0.096079,0.161550,0.111618,1,1
1593,40,0.136354,0.289667,-0.287986,0.189806,0.142860,1,1
1572,40,0.134178,0.279084,0.277199,0.302680,-0.094748,1,1
1617,41,0.180267,0.268938,0.245023,0.274441,-0.085862,1,1
1620,41,0.214109,0.416299,-0.161203,0.127839,0.117383,1,1
1605,41,0.148304,0.247004,0.212085,0.269795,-0.031275,1,1
1621,41,0.098661,0.417714,-0.129738,0.240047,0.133126,0,1
1635,41,0.052404,0.389590,-0.214209,0.309771,0.118799,0,1
1601,41,0.192043,0.290628,0.238675,0.115867,-0.179575,1,1
1604,41,0.194913,0.251444,0.248922,0.228245,-0.179276,1,1
1623,41,0.154205,0.301788,-0.226974,0.279973,0.205320,1,1
1602,41,0.232947,0.308122,0.220099,0.194838,-0.138114,1,1
1608,41,0.218621,0.300658,0.174635,0.240821,-0.049198,1,1
1634,41,0.197372,0.341725,-0.086166,0.249575,0.177450,1,1
1639,41,0.197640,0.295194,-0.292025,0.246984,0.099743,1,1
1610,41,0.170423,0.273273,0.273120,0.254888,-0.115992,1,1
1626,41,0.175142,0.407747,-0.179526,0.276821,0.141615,1,1
1628,41,0.185831,0.337916,-0.175641,0.396436,0.125402,1,1
1638,41,0.070795,0.328284,-0.160786,0.297889,0.069218,1,1
1629,41,0.101694,0.369765,-0.247325,0.313477,0.118006,1,1
1627,41,0.097389,0.375118,-0.106675,0.182313,0.120534,1,1
1637,41,0.136813,0.311559,-0.200778,0.264664,0.209711,1,1
1614,41,0.131474,0.283019,0.215554,0.269936,-0.072685,1,1
1618,41,0.195993,0.237774,0.239190,0.183727,-0.153273,1,1
1622,41,0.115834,0.372070,-0.191589,0.339761,0.147874,1,1
1600,41,0.160240,0.275378,0.139832,0.241432,-0.110411,1,1
1633,41,0.181615,0.289101,-0.158577,0.347086,0.197694,1,1
1615,41,0.245215,0.169118,0.192546,0.317981,-0.070594,1,0
1631,41,0.173128,0.334670,-0.168139,0.237981,0.213501,1,1
1611,41,0.192074,0.366651,0.185542,0.288539,-0.166953,1,1
1625,41,0.172680,0.339309,-0.261673,0.379012,0.124822,1,1
1619,41,0.176363,0.286416,0.169742,0.189987,-0.076786,1,1
1636,41,0.167494,0.344894,-0.168709,0.274059,0.159322,1,1
1630,41,0.160925,0.211397,-0.170607,0.364778,0.159291,1,1
1616,41,0.199426,0.313210,0.192671,0.306847,-0.056307,1,1
1603,41,0.279873,0.261221,0.249254,0.236109,-0.089295,1,1
1613,41,0.143146,0.291432,0.237205,0.274304,-0.116683,1,1
1606,41,0.226151,0.258874,0.169499,0.191234,-0.042192,1,1
1612,41,0.138150,0.270403,0.216049,0.258978,-0.151736,1,1
1632,41,0.251788,0.303385,-0.207889,0.276135,0.034306,1,1
1607,41,0.244805,0.327408,0.217223,0.248632,-0.117547,1,1
1624,41,0.160104,0.309559,-0.216901,0.263911,0.105017,1,1
1609,41,0.179244,0.233788,0.091951,0.240227,-0.122477,1,1
1674,42,0.074759,0.314803,-0.277954,0.172653,0.182127,1,1
1670,42,0.071338,0.393483,-0.183228,0.331626,0.280177,0,1
1668,42,0.075631,0.360987,-0.231343,0.265281,0.102832,0,1
1656,42,0.247331,0.206592,0.271547,0.199295,-0.167074,1,0
1667,42,0.092145,0.301159,-0.062426,0.244840,0.132459,1,1
1645,42,0.163865,0.256970,0.190234,0.162988,-0.136506,1,1
1660,42,0.098978,0.399839,-0.146875,0.205425,0.143641,0,1
1663,42,0.020975,0.400476,-0.179784,0.303725,0.233357,0,1
1644,42,0.116063,0.202977,0.191067,0.209614,-0.011314,1,0
1675,42,0.124768,0.316438,-0.143476,0.295601,0.162385,1,1
1664,42,0.059100,0.363566,-0.185153,0.230468,0.178186,0,1
1673,42,0.146515,0.357661,-0.132845,0.299155,0.170698,1,1
1659,42,0.192489,0.253196,0.207138,0.222605,-0.018848,1,1
1669,42,0.150303,0.393577,-0.087268,0.235700,0.175108,0,1
1640,42,0.180232,0.229601,0.209160,0.152563,-0.144445,1,0
1641,42,0.181378,0.190873,0.176505,0.293191,-0.081126,1,0
1658,42,0.200744,0.277753,0.196421,0.235176,-0.019265,1,1
1666,42,0.066331,0.338310,-0.129924,0.258751,0.108847,0,1
1648,42,0.265217,0.224561,0.189250,0.222119,-0.136859,1,0
1672,42,-0.029333,0.330173,-0.086943,0.267191,0.126398,0,1
1650,42,0.138821,0.300621,0.164186,0.237617,-0.111327,1,1
1649,42,0.157409,0.187877,0.226098,0.149922,-0.162517,1,0
1661,42,0.112762,0.309500,-0.151415,0.262513,0.179887,1,1
1657,42,0.083169,0.166388,0.183711,0.160721,-0.060001,1,0
1655,42,0.201405,0.189127,0.230579,0.225840,-0.100306,1,0
1662,42,0.053647,0.348179,-0.061512,0.219605,0.183747,0,1
1665,42,0.089370,0.339619,-0.136726,0.234943,0.065907,0,1
1677,42,0.196255,0.370202,-0.282214,0.244489,0.072667,1,1
1651,42,0.258272,0.225385,0.248332,0.145441,-0.151628,1,0
1676,42,0.198670,0.388069,-0.086875,0.201936,0.121029,0,1
1642,42,0.189860,0.140545,0.329392,0.184819,-0.198826,1,0
1679,42,0.133807,0.380578,-0.210098,0.198499,0.009294,0,1
1653,42,0.200769,0.296167,0.257789,0.291634,-0.074877,1,1
1643,42,0.241968,0.228246,0.188329,0.249894,-0.092353,1,0
1671,42,0.032390,0.373888,-0.128185,0.285331,0.144564,0,1
1647,42,0.152626,0.280793,0.224175,0.237462,-0.107052,1,1
1678,42,0.096568,0.293380,-0.041057,0.349896,0.180164,1,1
1654,42,0.150152,0.270239,0.251202,0.243310,-0.037687,1,1
1646,42,0.213647,0.239218,0.240057,0.235461,-0.004924,1,0
1652,42,0.199379,0.263460,0.131365,0.269166,-0.076384,1,1
1698,43,0.221430,0.136883,0.152418,0.200503,-0.161940,1,0
1719,43,0.025641,0.408162,-0.114447,0.280253,0.134039,0,1
1711,43,-0.080788,0.395870,-0.123763,0.142908,0.157797,0,1
1714,43,-0.034642,0.384685,-0.177483,0.285878,0.192768,0,1
1708,43,0.021373,0.369489,-0.216661,0.266493,0.136596,0,1
1715,43,0.068148,0.362280,-0.185360,0.183173,0.092973,0,1
1701,43,0.048438,0.384444,-0.177900,0.234018,0.101294,0,1
1717,43,-0.002603,0.318429,-0.218615,0.137666,0.120733,0,1
1694,43,0.063309,0.187183,0.108394,0.246563,-0.162173,1,0
1705,43,-0.053239,0.454722,-0.221017,0.279386,0.083814,0,1
1684,43,0.180047,0.165658,0.240080,0.168557,-0.060814,1,0
1713,43,0.036007,0.325190,-0.198696,0.192613,0.066256,0,1
1689,43,0.182302,0.135600,0.211196,0.153736,-0.140678,1,0
1703,43,-0.007626,0.335832,-0.138168,0.159960,0.108932,0,1
1699,43,0.160059,0.088537,0.126922,0.156947,-0.126958,1,0
1704,43,0.005703,0.270033,-0.139675,0.293049,0.073516,0,1
1688,43,0.118925,0.195894,0.191780,0.153193,-0.176834,1,0
1712,43,-0.037803,0.277209,-0.142724,0.153197,0.149597,0,1
1716,43,-0.072718,0.381132,-0.117262,0.198546,0.199397,0,1
1718,43,0.007172,0.322845,-0.183833,0.215464,0.073106,0,1
1686,43,0.171268,0.094834,0.142320,0.153887,-0.065297,1,0
1681,43,0.150834,0.133493,0.202060,0.085158,-0.062294,1,0
1691,43,0.138166,0.193003,0.268393,0.139437,-0.036344,1,0
1700,43,-0.014350,0.392021,-0.151048,0.073771,0.153273,0,1
1692,43,0.104852,0.090062,0.211571,0.142038,-0.144639,1,0
1690,43,0.269710,0.236540,0.219909,0.140307,-0.177631,1,0
1683,43,0.169863,0.151937,0.139551,0.184615,-0.197076,1,0
1687,43,0.159188,0.175193,0.269836,0.201243,-0.027924,1,0
1693,43,0.275912,0.185926,0.140611,0.158965,-0.076466,1,0
1696,43,0.143708,0.083904,0.156542,0.205141,-0.089044,1,0
1695,43,0.209881,0.153511,0.203098,0.153222,-0.050491,1,0
1685,43,0.183531,0.065325,0.277916,0.125110,-0.130233,1,0
1682,43,0.099770,0.026513,0.229280,0.155525,-0.092345,1,0
1697,43,0.138537,0.217459,0.148498,0.161001,-0.097469,1,0
1707,43,0.046252,0.426674,-0.092472,0.166473,0.061936,0,1
1709,43,-0.030037,0.381961,-0.132509,0.255288,0.157402,0,1
1702,43,-0.020331,0.268491,-0.155823,0.229452,0.161174,0,1
1680,43,0.142715,0.105270,0.145840,0.108656,-0.256447,1,0
1706,43,-0.022447,0.367606,-0.237920,0.248235,0.209561,0,1
1710,43,0.111171,0.399286,-0.141633,0.196749,0.169391,0,1
1734,44,-0.018577,0.202072,0.136130,0.081465,-0.075341,1,0
1743,44,-0.176738,0.314150,-0.168100,0.222224,0.127385,0,1
1736,44,-0.044335,0.072631,0.155722,0.074193,-0.132455,1,0
1749,44,-0.111079,0.456063,-0.094316,0.103833,0.049608,0,1
1739,44,0.006334,0.071479,0.197025,0.071390,-0.224906,1,0
1726,44,-0.038820,0.040313,0.209542,0.094759,-0.176820,1,0
1744,44,-0.147850,0.338623,-0.086029,0.162075,0.190607,0,1
1725,44,-0.109471,0.033097,0.149865,0.064496,-0.097201,1,0
1756,44,-0.093215,0.392817,-0.306101,0.195984,0.162049,0,1
1732,44,-0.022614,0.098868,0.200596,0.049668,-0.161095,1,0
1750,44,-0.111238,0.408897,-0.207646,0.164243,0.119787,0,1
1730,44,-0.115861,0.012232,0.122720,0.027400,-0.116630,1,0
1755,44,-0.067446,0.432195,-0.194426,0.156935,0.168098,0,1
1724,44,-0.098952,0.043723,0.179519,0.021169,-0.119574,1,0
1737,44,-0.041945,0.095480,0.202688,0.097430,-0.164805,1,0
1751,44,-0.112255,0.324780,-0.135622,0.119841,0.176760,0,1
1727,44,-0.041284,0.043372,0.183473,0.117377,-0.147627,1,0
1728,44,0.065608,0.085470,0.238935,0.047263,-0.153383,1,0
1753,44,-0.120346,0.339293,-0.325058,0.067600,0.095524,0,1
1723,44,-0.041826,0.107800,0.165743,0.086470,-0.036960,1,0
1733,44,-0.048271,0.076360,0.192882,0.141030,-0.149067,1,0
1752,44,-0.107485,0.233419,-0.119325,0.114628,0.175584,0,1
1747,44,-0.111983,0.355005,-0.115739,0.091503,0.110617,0,1
1722,44,0.093078,0.125971,0.209342,0.086684,-0.067756,1,0
1745,44,-0.154203,0.404275,-0.187875,0.199312,0.116005,0,1
1720,44,-0.052105,0.072811,0.290757,0.092511,-0.092395,1,0
1741,44,-0.041219,0.243128,-0.078599,0.098651,0.057093,0,1
1748,44,-0.084466,0.317046,-0.217377,0.177078,0.276868,0,1
1754,44,-0.058470,0.305485,-0.230218,0.151384,0.085059,0,1
1742,44,-0.062770,0.311006,-0.147975,0.098505,0.079257,0,1
1729,44,-0.004751,0.085368,0.157135,0.031712,-0.115813,1,0
1740,44,-0.190036,0.324656,-0.195232,0.156234,0.120068,0,1
1731,44,-0.168983,0.027950,0.155748,-0.031824,-0.117733,1,0
1735,44,-0.037635,0.028694,0.292903,0.063851,-0.180850,1,0
1759,44,-0.178293,0.281824,-0.205714,0.078059,0.134154,0,1
1758,44,-0.174972,0.337503,-0.182340,0.147505,0.140983,0,1
1721,44,-0.065676,0.136106,0.272594,0.133286,-0.133243,1,0
1738,44,-0.017358,0.006638,0.111844,0.041771,-0.112401,1,0
1757,44,-0.185719,0.376301,-0.118798,0.264323,0.122263,0,1
1746,44,-0.059630,0.343275,-0.141860,0.175724,0.117627,0,1
1780,45,-0.259316,0.442633,-0.151110,0.111172,0.189409,0,1
1778,45,-0.076108,0.079681,0.242768,-0.054972,-0.123161,1,0
1772,45,-0.136411,0.093301,0.287626,0.031250,-0.060398,1,0
1761,45,-0.183137,0.048836,0.183064,0.023743,-0.166022,1,0
1769,45,-0.195020,0.110066,0.241709,-0.042006,-0.179427,1,0
1796,45,-0.225167,0.260338,-0.204941,0.134983,0.168802,0,1
1786,45,-0.197441,0.346771,-0.301506,0.019407,0.131464,0,1
1790,45,-0.240413,0.268748,-0.149333,0.112254,0.036249,0,1
1770,45,-0.134475,0.056120,0.168927,-0.109761,-0.264011,1,0
1794,45,-0.261946,0.347684,-0.295908,0.043685,0.190664,0,1
1789,45,-0.311522,0.309379,-0.258785,-0.006096,0.246557,0,1
1764,45,-0.140936,0.048221,0.094100,-0.016253,-0.131653,1,0
1797,45,-0.254379,0.439636,-0.189565,0.064651,0.115848,0,1
1798,45,-0.379420,0.301552,-0.100438,-0.005548,0.119389,0,1
1793,45,-0.281807,0.282170,-0.107306,0.044763,0.058484,0,1
1792,45,-0.292345,0.267338,-0.117708,0.006962,0.120169,0,1
1795,45,-0.336721,0.387334,-0.213124,0.046457,0.165672,0,1
1777,45,-0.097917,-0.036026,0.158560,0.045242,-0.071056,1,0
1767,45,-0.167417,0.002217,0.357887,-0.073850,-0.054749,1,0
1783,45,-0.127381,0.308830,-0.207219,0.107824,0.165278,0,1
1776,45,-0.317654,0.113288,0.172881,0.013529,-0.154221,1,0
1781,45,-0.260610,0.315651,-0.173369,0.052658,0.157709,0,1
1760,45,-0.180204,0.079065,0.264193,0.023060,-0.179158,1,0
1771,45,-0.253674,0.060865,0.224248,-0.040380,-0.231307,1,0
1779,45,-0.169132,0.065709,0.180050,-0.012066,-0.129567,1,0
1766,45,-0.215414,0.033952,0.214525,0.059172,-0.103519,1,0
1773,45,-0.167112,0.081951,0.170941,-0.016925,-0.106357,1,0
1765,45,-0.088197,0.001330,0.171621,-0.052394,-0.155606,1,0
1787,45,-0.257388,0.348210,-0.240327,0.059460,0.138424,0,1
1782,45,-0.282359,0.283346,-0.230884,0.010836,0.065871,0,1
1762,45,-0.093350,0.090929,0.187763,0.082939,-0.158255,1,0
1784,45,-0.205539,0.312192,-0.220490,0.113373,0.208911,0,1
1768,45,-0.212171,0.054810,0.151101,-0.033839,-0.170230,1,0
1775,45,-0.199459,0.082869,0.124292,0.104310,-0.123454,1,0
1785,45,-0.238988,0.300980,-0.125900,0.022172,0.155566,0,1
1774,45,-0.184196,0.098135,0.248479,-0.130523,-0.072494,1,0
1763,45,-0.176030,0.057908,0.233213,-0.154321,-0.237057,1,0
1791,45,-0.222068,0.306862,-0.229123,0.036484,0.162649,0,1
1788,45,-0.257742,0.244882,-0.213840,0.089334,0.090108,0,1
1799,45,-0.206950,0.387084,-0.044850,0.016931,0.047492,0,1
1821,46,-0.305743,0.257291,-0.205823,-0.026385,0.188226,0,1
1808,46,-0.247723,0.056625,0.101621,-0.126286,-0.116647,1,0
1830,46,-0.423993,0.335194,-0.230868,-0.095231,0.166550,0,1
1813,46,-0.383987,0.140231,0.115509,-0.053030,-0.187130,1,0
1806,46,-0.281759,0.118402,0.162535,-0.118943,-0.117651,1,0
1814,46,-0.266666,0.049290,0.252619,-0.100585,-0.077738,1,0
1803,46,-0.257683,0.092932,0.187589,-0.081882,-0.081182,1,0
1801,46,-0.299298,0.035100,0.182036,-0.127670,-0.122432,1,0
1820,46,-0.327196,0.309791,-0.219669,0.011195,0.198630,0,1
1816,46,-0.191341,0.114417,0.252155,-0.108942,-0.069124,1,0
1832,46,-0.300568,0.244922,-0.166703,0.011687,0.103967,0,1
1812,46,-0.222067,0.056979,0.235327,-0.196976,-0.078931,1,0
1809,46,-0.231129,0.118145,0.125798,-0.136120,-0.147776,1,0
1823,46,-0.262578,0.280034,-0.197919,-0.018364,0.049517,0,1
1825,46,-0.258638,0.165828,-0.161743,-0.006866,0.134981,1,1
1822,46,-0.407004,0.281136,-0.213232,0.036428,0.120474,0,1
1811,46,-0.205415,0.058333,0.230152,-0.122317,-0.058019,1,0
1839,46,-0.389561,0.254014,-0.171484,0.078590,0.104947,0,1
1827,46,-0.241908,0.209353,-0.187610,-0.049240,0.168888,0,1
1837,46,-0.248311,0.150198,-0.084157,-0.082904,0.094736,1,1
1804,46,-0.238883,0.015383,0.202397,-0.131655,-0.173098,1,0
1831,46,-0.349249,0.264172,-0.216565,-0.009016,0.090646,0,1
1805,46,-0.233347,0.136954,0.204138,-0.030523,-0.199301,1,0
1800,46,-0.098649,-0.023017,0.128729,-0.112763,-0.092862,1,0
1826,46,-0.314725,0.355634,-0.310157,-0.025065,0.138486,0,1
1815,46,-0.253407,0.109874,0.123166,-0.021120,-0.044827,1,0
1817,46,-0.302857,0.003833,0.151372,-0.099783,-0.034791,1,0
1810,46,-0.216833,0.085318,0.194998,-0.107720,-0.077279,1,0
1807,46,-0.231970,0.111579,0.187177,-0.147947,-0.149730,1,0
1834,46,-0.297923,0.272023,-0.247092,0.054544,0.104108,0,1
1835,46,-0.352112,0.318848,-0.155899,-0.041342,0.138398,0,1
1838,46,-0.285661,0.302714,-0.138383,-0.065005,0.148852,0,1
1828,46,-0.340562,0.220376,-0.292455,0.004659,0.112372,0,1
1833,46,-0.259798,0.372789,-0.193634,0.017134,0.141080,0,1
1824,46,-0.396023,0.336855,-0.233844,-0.036260,0.218221,0,1
1818,46,-0.217868,0.107614,0.209237,-0.027773,-0.126689,1,0
1819,46,-0.205376,-0.046001,0.185003,-0.097369,-0.143556,1,0
1829,46,-0.328838,0.326228,-0.091591,0.028455,0.097013,0,1
1802,46,-0.203635,0.109598,0.076254,-0.068747,-0.148132,1,0
1836,46,-0.402606,0.231946,-0.168157,0.041104,0.078497,0,1
1860,47,-0.424489,0.172397,-0.150451,0.033419,0.061971,1,1
1875,47,-0.405936,0.295884,-0.165792,-0.007289,0.099699,0,1
1862,47,-0.302461,0.282228,-0.123812,-0.023245,0.040431,0,1
1853,47,-0.404078,0.080525,0.186733,-0.085271,-0.118145,1,0
1863,47,-0.443966,0.294448,-0.159510,-0.038223,0.222935,0,1
1840,47,-0.324601,0.001702,0.236987,-0.122067,-0.148522,1,0
1861,47,-0.337284,0.273345,-0.186593,0.013434,0.158530,0,1
1850,47,-0.296144,0.029152,0.150229,-0.100866,-0.176243,1,0
1855,47,-0.357521,0.001502,0.135254,-0.148913,-0.175165,1,0
1852,47,-0.368982,0.055255,0.165675,-0.092283,-0.088858,1,0
1866,47,-0.326704,0.244655,-0.178232,-0.080563,0.148725,0,1
1849,47,-0.309417,0.135277,0.228871,-0.009521,-0.048858,1,1
1865,47,-0.328951,0.263760,-0.188812,-0.094888,0.134683,0,1
1844,47,-0.415657,0.123298,0.137219,-0.082595,-0.235686,1,1
1874,47,-0.395668,0.322777,-0.251080,-0.048369,0.202649,0,1
1867,47,-0.389550,0.227432,-0.176959,-0.005775,0.196442,0,1
1873,47,-0.359935,0.248352,-0.090815,0.001267,0.070685,0,1
1869,47,-0.363424,0.257996,-0.235890,0.031747,0.097059,0,1
1841,47,-0.385145,0.090877,0.144985,-0.036336,-0.041490,1,0
1854,47,-0.316452,0.026482,0.080934,-0.106755,-0.097213,1,0
1843,47,-0.341712,0.116733,0.148758,-0.112046,-0.226997,1,1
1859,47,-0.324449,0.036260,0.207212,-0.049512,-0.084834,1,0
1858,47,-0.301209,0.038205,0.171741,-0.167809,-0.127408,1,0
1878,47,-0.395685,0.132949,-0.256890,-0.031066,0.196732,1,1
1845,47,-0.399804,0.091768,0.151079,-0.019598,-0.212247,1,0
1842,47,-0.389163,0.073846,0.186198,-0.133870,-0.172072,1,0
1848,47,-0.309696,0.059001,0.265723,-0.208319,-0.237919,1,0
1872,47,-0.289925,0.306534,-0.187597,0.038869,0.149728,0,1
1851,47,-0.334602,0.065940,0.129152,-0.154902,-0.099853,1,0
1846,47,-0.318741,0.162580,0.128519,-0.116905,-0.196317,1,1
1876,47,-0.392863,0.297070,-0.228686,0.056942,0.148234,0,1
1871,47,-0.350104,0.229018,-0.203288,-0.054449,0.019752,0,1
1870,47,-0.298790,0.262776,-0.206308,0.000178,0.115663,0,1
1857,47,-0.402469,0.116452,0.232206,-0.082298,-0.227157,1,1
1856,47,-0.192205,0.092827,0.149220,-0.062517,-0.080992,1,0
1864,47,-0.384872,0.247337,-0.314319,-0.033416,0.186711,0,1
1879,47,-0.342881,0.225746,-0.236086,-0.048804,0.184509,0,1
1868,47,-0.349938,0.196896,-0.263038,-0.042382,0.115694,1,1
1877,47,-0.435275,0.272628,-0.273287,-0.024231,0.122420,0,1
1847,47,-0.248034,0.086689,0.081006,-0.083722,-0.123041,1,0
1913,48,-0.424581,0.222144,-0.198976,-0.073432,0.146134,1,1
1896,48,-0.379936,0.107844,0.144812,0.043932,-0.157300,1,1
1895,48,-0.344803,0.105097,0.204874,-0.076876,-0.117622,1,1
1903,48,-0.473680,0.171831,-0.197314,-0.052372,0.200760,1,1
1900,48,-0.446497,0.159064,-0.207564,-0.105147,0.136076,1,1
1908,48,-0.413142,0.179235,-0.254175,-0.085748,0.172424,1,1
1915,48,-0.359477,0.146465,-0.223216,-0.112782,0.129894,1,1
1904,48,-0.420682,0.147320,-0.183609,-0.037563,0.138892,1,1
1894,48,-0.309821,0.113581,0.095310,-0.086811,-0.158599,1,1
1910,48,-0.345336,0.197952,-0.159021,-0.081063,0.084679,1,1
1889,48,-0.268810,0.161899,0.101751,-0.168569,-0.124423,1,1
1880,48,-0.372092,0.068242,0.120827,-0.048565,-0.171356,1,1
1918,48,-0.377019,0.245966,-0.166556,-0.138074,0.120386,0,1
1902,48,-0.418870,0.124550,-0.214296,-0.088576,0.050938,1,1
1888,48,-0.386817,0.124879,0.190291,-0.155891,-0.136360,1,1
1887,48,-0.256722,0.109718,0.182990,-0.047357,-0.107943,1,0
1890,48,-0.368783,0.125602,0.212946,-0.080630,-0.157716,1,1
1899,48,-0.327625,0.066732,0.286060,-0.005030,-0.106000,1,1
1897,48,-0.482738,0.161392,0.183620,-0.071191,-0.138396,1,1
1882,48,-0.455988,0.049024,0.194016,-0.123347,-0.062445,1,0
1885,48,-0.451984,0.104129,0.157438,-0.129519,-0.087081,1,1
1886,48,-0.354616,0.186738,0.215256,-0.061001,-0.110800,1,1
1911,48,-0.430695,0.250498,-0.234550,-0.176111,0.073330,0,1
1892,48,-0.439857,0.009816,0.243214,-0.116909,-0.157178,1,0
1898,48,-0.308424,0.142354,0.293881,-0.121978,-0.129730,1,1
1919,48,-0.526667,0.222152,-0.179398,-0.069584,0.153462,0,1
1881,48,-0.394524,0.060454,0.087555,-0.113788,-0.126990,1,1
1893,48,-0.380288,0.076180,0.223689,-0.114076,-0.217841,1,1
1912,48,-0.299210,0.208230,-0.152387,0.013815,0.114228,1,1
1909,48,-0.382578,0.179383,-0.210728,-0.165990,0.059592,1,1
1883,48,-0.394735,0.074962,0.243206,-0.076058,-0.106447,1,1
1916,48,-0.420213,0.236143,-0.193508,-0.029401,0.081960,0,1
1906,48,-0.556312,0.098442,-0.185981,-0.097321,0.014044,0,1
1914,48,-0.380238,0.141338,-0.238897,-0.041486,0.163199,1,1
1891,48,-0.236474,0.109245,0.229456,-0.120759,-0.169074,1,0
1905,48,-0.400881,0.294261,-0.242023,-0.055578,0.161113,0,1
1917,48,-0.441514,0.282233,-0.183711,-0.089362,0.140743,0,1
1901,48,-0.419184,0.198466,-0.191234,-0.136327,0.162089,1,1
1907,48,-0.352518,0.106105,-0.190780,-0.051028,0.069057,1,1
1884,48,-0.336969,0.051318,0.137844,-0.121590,-0.134069,1,0
1948,49,-0.358036,0.083578,-0.203800,-0.096463,0.150319,1,1
1953,49,-0.407901,0.128152,-0.278608,-0.124222,0.278911,1,1
1939,49,-0.307288,0.121780,0.065064,-0.044505,-0.175564,1,1
1930,49,-0.372660,0.113882,0.093555,-0.041250,-0.198248,1,1
1950,49,-0.386735,0.197265,-0.238818,-0.157861,0.073278,1,1
1957,49,-0.438841,0.089411,-0.256317,-0.114062,0.231828,1,1
1921,49,-0.394362,0.068214,0.169733,0.026186,-0.166845,1,1
1927,49,-0.359003,0.192035,0.083666,-0.030781,-0.147815,1,1
1945,49,-0.410703,0.097139,-0.137524,-0.166057,0.178038,1,1
1959,49,-0.368265,0.171473,-0.218176,-0.099172,0.114639,1,1
1934,49,-0.363864,0.121105,0.114112,-0.100281,-0.185631,1,1
1938,49,-0.455155,0.060147,0.145171,-0.007026,-0.142643,1,1
1951,49,-0.250267,0.122820,-0.133771,-0.097981,0.216938,1,1
1952,49,-0.392701,0.170742,-0.275680,-0.082013,0.206477,1,1
1935,49,-0.458605,0.104870,0.143898,-0.111441,-0.147530,1,1
1929,49,-0.370921,0.103123,0.197024,-0.128066,-0.301183,1,1
1937,49,-0.382380,0.188529,0.074744,-0.148945,-0.210051,1,1
1933,49,-0.405360,0.078045,0.213960,-0.092807,-0.140302,1,1
1924,49,-0.406606,0.161180,0.103776,-0.091027,-0.205070,1,1
1922,49,-0.364987,0.008853,0.186804,-0.106640,-0.203354,1,1
1954,49,-0.441082,0.153762,-0.208048,-0.105607,0.154716,1,1
1956,49,-0.304777,0.130755,-0.208976,-0.177095,0.069855,1,1
1943,49,-0.428498,0.052440,-0.230652,-0.100971,0.122573,1,1
1925,49,-0.399468,0.098969,0.185480,-0.148950,-0.153979,1,1
1940,49,-0.392237,0.064886,-0.242275,-0.110045,0.126397,1,1
1944,49,-0.358973,0.137216,-0.221176,-0.074291,0.130727,1,1
1931,49,-0.463541,0.075121,0.114394,-0.078562,-0.172639,1,1
1949,49,-0.347591,0.157648,-0.185635,-0.132661,0.080175,1,1
1920,49,-0.306583,0.214937,0.136789,-0.061443,-0.115311,1,1
1947,49,-0.431155,0.072957,-0.226768,-0.144859,0.198899,1,1
1946,49,-0.419373,0.089773,-0.188905,-0.140961,0.203409,1,1
1942,49,-0.459212,0.134424,-0.183618,-0.119279,0.231223,1,1
1928,49,-0.280587,0.058968,0.141984,-0.097532,-0.209294,1,1
1941,49,-0.431055,0.030177,-0.311138,-0.212837,0.226171,1,1
1923,49,-0.362600,0.150611,0.107567,-0.112191,-0.100796,1,1
1926,49,-0.442711,0.135220,0.161202,-0.166135,-0.108607,1,1
1955,49,-0.482487,0.145021,-0.156072,0.024198,0.098059,1,1
1958,49,-0.403946,0.107608,-0.187889,-0.064391,0.181539,1,1
1936,49,-0.403323,0.038773,0.221681,-0.053249,-0.148976,1,1
1932,49,-0.428163,0.111335,0.126353,-0.146510,-0.077553,1,1
1979,50,-0.188801,0.145582,0.169695,-0.066412,-0.241769,1,0
1987,50,-0.346759,-0.000894,-0.215433,-0.068293,0.069053,0,1
1994,50,-0.411638,0.163418,-0.180114,-0.105520,0.042060,1,1
1969,50,-0.264368,0.165122,0.056059,-0.017465,-0.092938,1,1
1963,50,-0.358988,0.157824,0.173569,-0.090170,-0.106926,1,1
1978,50,-0.364543,0.080824,0.230050,-0.056272,-0.212331,1,1
1980,50,-0.287051,0.080053,-0.239513,-0.035257,0.151844,1,1
1965,50,-0.422635,0.199416,0.161547,-0.032836,-0.120637,1,1
1986,50,-0.469713,0.087857,-0.146922,-0.173071,0.156363,1,1
1977,50,-0.368124,0.053113,0.218963,-0.022588,-0.141311,1,1
1983,50,-0.307610,0.088190,-0.129710,-0.135551,0.130257,1,1
1997,50,-0.331345,0.169049,-0.264090,-0.126548,0.092765,1,1
1998,50,-0.449372,-0.032794,-0.187561,-0.114393,0.224556,0,1
1972,50,-0.402368,0.128714,0.088900,-0.107198,-0.167149,1,1
1989,50,-0.316800,0.110808,-0.203946,-0.192764,0.023363,1,1
1990,50,-0.362293,0.107828,-0.212336,0.007750,0.128448,1,1
1974,50,-0.364454,0.189604,0.115581,-0.130510,-0.146397,1,1
1988,50,-0.329999,0.011535,-0.263564,-0.123596,0.161608,1,1
1992,50,-0.382110,0.166338,-0.212370,-0.196036,0.071682,1,1
1982,50,-0.368342,0.143339,-0.269679,-0.102442,-0.006964,1,1
1973,50,-0.295582,0.180966,0.161206,0.011825,-0.111929,1,1
1968,50,-0.295238,0.107975,0.109890,-0.064173,-0.189951,1,1
1967,50,-0.356758,0.093266,0.103579,-0.011074,-0.068928,1,1
1995,50,-0.406220,0.099282,-0.114750,-0.056892,0.206043,1,1
1971,50,-0.344777,0.144386,0.174630,-0.049298,-0.149140,1,1
1976,50,-0.371345,0.138400,0.261033,-0.057890,-0.245432,1,1
1962,50,-0.296399,0.074930,0.097649,-0.165221,-0.105614,1,1
1993,50,-0.303342,0.172602,-0.160725,-0.167499,0.190867,1,1
1991,50,-0.362036,0.116336,-0.299278,-0.128703,0.185900,1,1
1970,50,-0.436912,0.165009,0.096062,-0.109688,-0.218328,1,1
1996,50,-0.327193,0.040049,-0.184698,-0.017291,0.207566,1,1
1975,50,-0.351246,0.223400,0.212299,-0.176084,-0.116636,1,1
1981,50,-0.337639,0.079048,-0.215923,-0.115094,0.124702,1,1
1964,50,-0.358166,0.217111,0.103682,-0.017667,-0.144826,1,1
1960,50,-0.334906,0.280446,0.144443,-0.141483,-0.141403,1,0
1961,50,-0.383882,0.172981,0.146054,-0.104762,-0.142275,1,1
1984,50,-0.384967,0.093869,-0.200820,-0.013238,0.177771,1,1
1985,50,-0.249455,0.206197,-0.284902,-0.216249,0.190083,1,1
1999,50,-0.338321,0.146661,-0.142950,-0.120435,0.151430,1,1
1966,50,-0.338492,0.183222,0.189749,-0.025393,-0.152854,1,1
2007,51,-0.255971,0.137508,0.172485,0.035077,-0.269013,1,1
2003,51,-0.308153,0.107965,0.193334,-0.121521,-0.194462,1,1
2029,51,-0.310231,0.054275,-0.257386,-0.055633,0.144104,1,1
2033,51,-0.228049,0.021346,-0.152946,-0.055592,0.127605,0,1
2030,51,-0.237779,0.128883,-0.163151,-0.107288,0.160308,1,1
2031,51,-0.285057,0.112568,-0.179799,-0.079800,0.124750,1,1
2039,51,-0.185143,0.117166,-0.243786,-0.102581,0.086538,1,1
2018,51,-0.378850,0.162161,0.163168,-0.074525,-0.184007,1,1
2002,51,-0.212365,0.157603,0.082480,-0.014368,-0.131710,1,1
2014,51,-0.265338,0.105915,0.241182,-0.021016,-0.202905,1,1
2020,51,-0.199296,0.098121,-0.238549,-0.019199,0.108374,1,1
2019,51,-0.321756,0.202408,0.061747,0.044061,-0.224289,1,1
2024,51,-0.239970,0.133752,-0.165079,0.018828,0.075612,1,1
2016,51,-0.232728,0.241341,0.195137,-0.053254,-0.182083,1,0
2008,51,-0.235969,0.197610,0.157914,0.028966,-0.223283,1,1
2022,51,-0.215656,0.070757,-0.211563,-0.168990,0.146753,1,1
2026,51,-0.235459,0.101661,-0.168346,-0.110308,0.096427,1,1
2025,51,-0.257167,0.034836,-0.212386,-0.105963,0.195415,1,1
2035,51,-0.265462,0.053655,-0.126014,-0.058996,0.104887,1,1
2027,51,-0.316653,0.120913,-0.125786,-0.122208,0.112697,1,1
2028,51,-0.271652,0.130954,-0.230307,0.024419,0.110531,1,1
2000,51,-0.234999,0.221678,0.054357,0.079632,-0.144047,1,1
2006,51,-0.243721,0.172899,0.168945,0.027671,-0.195447,1,1
2001,51,-0.282372,0.162094,0.149534,0.003792,-0.168388,1,1
2011,51,-0.218930,0.080561,0.148561,-0.036437,-0.180312,1,1
2010,51,-0.245377,0.205594,0.152251,0.033710,-0.225676,1,1
2038,51,-0.340539,0.020801,-0.173370,-0.051470,0.049588,0,1
2013,51,-0.177167,0.151772,0.205111,-0.065594,-0.124911,1,1
2009,51,-0.217875,0.255528,0.201978,-0.041404,-0.076784,1,0
2021,51,-0.323667,0.080207,-0.158708,-0.127893,0.149635,1,1
2037,51,-0.243284,0.026309,-0.281974,-0.145491,0.106773,1,1
2012,51,-0.294249,0.190951,0.216873,-0.065397,-0.166776,1,1
2023,51,-0.246489,0.167412,-0.241135,-0.040899,0.086694,1,1
2036,51,-0.304952,0.077310,-0.215722,-0.026133,0.234309,1,1
2004,51,-0.098283,0.047206,0.174147,-0.023473,-0.142477,1,0
2015,51,-0.231495,0.138771,0.126158,-0.015666,-0.190712,1,1
2032,51,-0.160963,0.128370,-0.261138,-0.030796,0.062342,1,1
2034,51,-0.272726,0.130538,-0.216345,-0.057559,0.174842,1,1
2005,51,-0.276906,0.107895,0.174958,-0.131287,-0.182709,1,1
2017,51,-0.277507,0.166851,0.131846,0.003641,-0.112639,1,1
2051,52,-0.215521,0.123157,0.158291,0.068419,-0.171344,1,1
2049,52,-0.187506,0.302908,0.193804,0.035034,-0.212209,1,0
2053,52,-0.140085,0.193895,0.142516,0.120325,-0.162404,1,1
2077,52,-0.177267,0.034977,-0.238467,-0.008127,0.027691,0,1
2079,52,-0.230967,0.184282,-0.197033,-0.024740,0.082450,1,1
2043,52,-0.157702,0.172009,0.172168,0.060260,-0.113109,1,1
2048,52,-0.179658,0.154713,0.192011,-0.008145,-0.115490,1,1
2078,52,-0.283306,-0.000342,-0.201670,-0.034169,0.081778,0,1
2044,52,-0.176503,0.255028,0.141080,0.107706,-0.187785,1,0
2056,52,-0.167728,0.180116,0.152193,0.048702,-0.073178,1,1
2074,52,-0.264921,0.093440,-0.166819,0.043159,0.139146,1,1
2041,52,-0.180198,0.246206,0.072572,0.066060,-0.153944,1,0
2058,52,-0.079252,0.244885,0.252540,0.054402,-0.164277,1,0
2073,52,-0.180993,0.116910,-0.245336,0.001925,0.172043,1,1
2075,52,-0.189340,0.142917,-0.274665,-0.029862,0.059202,1,1
2066,52,-0.183642,0.074622,-0.217797,-0.044537,0.141589,1,1
2042,52,-0.102247,0.142790,0.196567,0.059492,-0.223064,1,1
2070,52,-0.269453,-0.024427,-0.189070,0.013425,0.147610,0,1
2047,52,-0.175935,0.253887,0.201304,0.003283,-0.178401,1,0
2072,52,-0.236340,0.106441,-0.258677,-0.135543,0.071249,1,1
2045,52,-0.159188,0.212325,0.179066,0.000454,-0.136052,1,1
2063,52,-0.244818,0.121156,-0.188363,-0.057216,0.070083,1,1
2064,52,-0.291281,0.070337,-0.216184,-0.036934,0.065605,0,1
2062,52,-0.260449,0.065615,-0.218321,0.033066,0.153412,0,1
2050,52,-0.172055,0.150589,0.140405,0.068645,-0.171016,1,1
2068,52,-0.158934,0.054441,-0.193841,-0.057513,0.093744,1,1
2067,52,-0.181262,0.230006,-0.280285,-0.032916,0.065629,1,1
2060,52,-0.217472,0.095768,-0.134010,0.006721,0.063279,1,1
2052,52,-0.227789,0.204323,0.158210,0.017155,-0.111045,1,1
2054,52,-0.110345,0.154534,0.187522,0.144069,-0.052803,1,1
2040,52,-0.046470,0.202847,0.198775,0.084526,-0.200113,1,0
2071,52,-0.151881,0.063919,-0.309071,-0.059603,0.096665,1,1
2055,52,-0.123501,0.227380,0.120722,0.036217,-0.155704,1,0
2046,52,-0.110314,0.308119,0.131707,-0.001371,-0.149018,1,0
2061,52,-0.170904,0.082618,-0.076383,-0.126159,0.105495,1,1
2059,52,-0.142403,0.216607,0.126727,0.054406,-0.277036,1,0
2076,52,-0.160800,0.139687,-0.095730,-0.122951,0.032967,1,1
2057,52,-0.270414,0.145666,0.216927,-0.024778,-0.122742,1,1
2065,52,-0.228372,0.104465,-0.197321,-0.031993,0.099734,1,1
2069,52,-0.320495,0.147844,-0.123009,-0.016433,0.090447,0,1
2099,53,0.000838,0.124280,0.209595,0.028677,-0.162281,1,1
2087,53,-0.067566,0.204429,0.117991,0.171243,-0.284473,1,1
2107,53,-0.047278,0.182188,-0.226512,0.050647,0.127976,1,1
2093,53,-0.057441,0.187230,0.182350,0.044156,-0.118449,1,1
2105,53,-0.179419,0.114406,-0.283045,0.013516,0.109348,0,1
2082,53,-0.016576,0.254390,0.075876,0.140489,-0.178029,1,0
2088,53,-0.016436,0.182190,0.076974,0.110333,-0.190200,1,0
2095,53,0.052310,0.236586,0.088366,0.109486,-0.151756,1,0
2100,53,-0.085070,0.137517,-0.313097,0.010396,0.131782,1,1
2083,53,0.006146,0.165554,0.110055,0.057534,-0.199317,1,0
2110,53,-0.120166,0.103954,-0.209848,-0.050069,0.215443,1,1
2113,53,-0.195060,0.168836,-0.224303,-0.010354,0.084723,0,1
2117,53,-0.134143,0.097973,-0.271589,-0.004365,0.100773,0,1
2094,53,-0.100678,0.109972,0.225611,0.076563,-0.231617,1,1
2115,53,-0.146937,0.113074,-0.287895,-0.005237,0.066641,0,1
2116,53,-0.191911,0.100167,-0.232449,-0.025021,0.057754,0,1
2114,53,-0.005557,0.087412,-0.176539,-0.006036,-0.026196,1,1
2089,53,0.014102,0.265727,0.095813,0.147828,-0.183039,1,0
2092,53,0.008703,0.225655,0.189008,0.160209,-0.194242,1,0
2086,53,-0.021654,0.222873,0.167824,0.149505,-0.191889,1,0
2109,53,-0.208353,0.067815,-0.300636,-0.033822,0.090913,0,1
2085,53,-0.005793,0.253855,0.120229,0.091221,-0.171798,1,0
2106,53,-0.108084,0.116270,-0.314325,-0.010957,0.108104,1,1
2118,53,-0.265394,0.014997,-0.163622,-0.093063,0.101304,0,1
2101,53,-0.121201,0.049769,-0.214358,-0.061429,0.077095,0,1
2102,53,-0.204890,0.121480,-0.240064,-0.023799,0.139579,0,1
2111,53,-0.155890,0.166938,-0.162029,-0.000121,0.180013,0,1
2080,53,-0.049461,0.143043,0.209032,0.163083,-0.067737,1,1
2096,53,0.016294,0.147436,0.188612,0.038258,-0.251523,1,0
2119,53,-0.140167,0.149122,-0.296183,-0.072671,0.067575,1,1
2104,53,-0.199064,0.117087,-0.166730,-0.048458,0.073785,0,1
2091,53,-0.042441,0.166348,0.198657,0.052060,-0.195815,1,1
2090,53,-0.006928,0.274191,0.068527,-0.026058,-0.147586,1,0
2097,53,-0.018091,0.187294,0.130195,0.038224,-0.168574,1,0
2081,53,-0.004502,0.208681,0.214291,0.092350,-0.118225,1,0
2103,53,-0.208711,0.093192,-0.203989,-0.040499,0.131605,0,1
2084,53,-0.027247,0.135876,0.192850,0.173505,-0.201216,1,1
2098,53,-0.040475,0.255857,0.157925,0.124554,-0.159235,1,0
2108,53,-0.137424,0.048936,-0.227319,-0.083659,0.111878,0,1
2112,53,-0.096459,0.123753,-0.220945,-0.032122,0.091067,1,1
2133,54,0.009598,0.246375,0.003284,0.157148,-0.100065,1,0
2137,54,0.154925,0.159257,0.249380,0.173305,-0.213668,1,0
2152,54,0.021015,0.032553,0.445158,0.130270,0.116113,0,1
2143,54,-0.037687,0.068377,0.444217,0.079388,-0.014625,0,1
2134,54,0.036590,0.147674,0.084803,0.145568,-0.134891,1,1
2150,54,-0.066855,0.117879,0.462717,0.122726,0.054130,0,1
2121,54,0.073973,0.199295,0.227182,0.080049,-0.178388,1,0
2135,54,0.013551,0.220076,0.134669,0.184006,-0.103395,1,0
2144,54,-0.098113,0.095271,0.494634,-0.046114,0.076155,0,1
2125,54,-0.028318,0.227517,0.158949,0.203491,-0.173800,1,1
2140,54,-0.063883,0.047010,0.442288,0.009177,0.133319,0,1
2138,54,0.014812,0.169419,0.152390,0.152577,-0.174382,1,1
2157,54,-0.162606,0.140081,0.511203,0.101259,0.039535,0,1
2132,54,0.114324,0.194773,0.178414,0.154059,-0.137091,1,0
2146,54,-0.053356,0.004076,0.456377,-0.003980,0.072330,0,1
2128,54,0.022296,0.139724,0.072548,0.104097,-0.244394,1,1
2139,54,0.059924,0.132180,0.078533,0.183514,-0.133929,1,1
2130,54,0.111949,0.215651,0.120371,0.125500,-0.168278,1,0
2136,54,0.034838,0.183539,0.177553,0.145938,-0.157482,1,1
2123,54,0.173633,0.213027,0.104205,0.105274,-0.195301,1,0
2141,54,-0.034557,0.065062,0.417484,0.058173,0.089575,0,1
2145,54,-0.149368,0.095556,0.453030,-0.011626,0.008707,0,1
2159,54,-0.022170,0.060649,0.439107,0.043038,-0.009937,0,1
2148,54,-0.050514,0.127320,0.369799,0.099246,0.093278,1,1
2158,54,-0.054417,0.126577,0.507259,0.084340,0.025796,1,1
2142,54,-0.063535,0.103762,0.470458,0.021033,0.107459,0,1
2147,54,-0.112177,-0.030500,0.485324,-0.073844,0.065974,0,1
2155,54,0.016990,0.078520,0.512861,0.069232,0.063530,1,1
2122,54,0.079261,0.198259,0.066842,0.083450,-0.127928,1,0
2149,54,-0.062189,0.127622,0.550568,-0.024016,0.032847,1,1
2151,54,-0.141621,0.107239,0.548336,0.056969,0.080302,0,1
2120,54,0.063723,0.211812,0.145402,0.189025,-0.181529,1,0
2154,54,-0.094420,0.038708,0.488453,0.043741,0.049765,0,1
2153,54,-0.024592,0.059393,0.473455,0.093836,0.048614,0,1
2129,54,0.052447,0.111832,0.056168,0.214597,-0.198326,1,1
2131,54,0.008560,0.202517,0.066634,0.122800,-0.140533,1,1
2127,54,0.036232,0.190263,0.075247,0.139072,-0.091835,1,1
2156,54,-0.038139,0.043376,0.427884,0.102810,0.128669,0,1
2126,54,0.124251,0.152872,0.174418,0.184966,-0.159716,1,0
2124,54,0.152877,0.139548,0.142653,0.169199,-0.156802,1,0
2167,55,0.179704,0.217393,0.013939,0.210093,-0.170573,1,0
2169,55,0.068948,0.175245,0.093977,0.168631,-0.206158,1,1
2175,55,0.038991,0.187397,0.195955,0.129323,-0.120835,1,1
2194,55,0.158265,0.022669,0.426752,0.127920,0.051679,0,1
2196,55,0.000002,0.037355,0.529775,0.049424,0.132967,0,1
2185,55,-0.043107,0.010271,0.503056,0.027704,0.051218,0,1
2199,55,-0.030675,0.158648,0.445610,0.156901,0.090398,1,1
2177,55,0.086917,0.197358,0.063076,0.199871,-0.154712,1,1
2180,55,0.033684,0.035944,0.446062,-0.006635,0.042150,0,1
2197,55,0.044198,0.025724,0.473935,0.084468,0.124752,0,1
2193,55,0.057530,0.047780,0.496182,0.048671,0.039007,1,1
2192,55,0.077900,0.136686,0.383866,0.022508,0.045800,1,1
2183,55,0.001805,0.063444,0.364981,0.097981,0.106735,0,1
2188,55,-0.065381,0.162331,0.382703,0.100839,0.022580,0,1
2191,55,-0.026992,0.177795,0.442140,0.016462,0.061859,1,1
2187,55,0.102120,0.080252,0.399351,0.055908,0.119896,1,1
2166,55,0.137480,0.275991,0.055150,0.186223,-0.116277,1,0
2184,55,0.012362,0.172301,0.395375,0.009795,0.115019,1,1
2168,55,0.121013,0.136589,0.118069,0.160111,-0.185691,1,1
2195,55,0.036210,0.067596,0.438223,0.067601,0.101030,1,1
2182,55,-0.037289,0.111157,0.428313,-0.007077,0.122946,0,1
2161,55,0.072744,0.144048,0.136839,0.194470,-0.133349,1,1
2165,55,0.134667,0.190238,0.081069,0.209890,-0.168190,1,0
2178,55,0.068226,0.160667,0.163691,0.243270,-0.230817,1,1
2198,55,0.053686,0.165748,0.493015,0.146821,0.031197,1,1
2164,55,0.066568,0.294473,0.176629,0.246053,-0.154731,1,0
2186,55,-0.001160,0.061227,0.434303,0.121395,0.030663,0,1
2171,55,0.112789,0.153605,0.050074,0.201824,-0.290760,1,1
2170,55,0.044298,0.111471,0.124066,0.130089,-0.121950,1,1
2189,55,0.012709,0.012503,0.446265,0.112307,0.044451,0,1
2181,55,0.056479,-0.058968,0.489154,0.026285,-0.021360,0,1
2172,55,0.112034,0.179569,0.248412,0.228378,-0.259097,1,1
2190,55,-0.009475,0.075593,0.342746,0.069585,0.124487,0,1
2162,55,0.034696,0.297478,0.116832,0.154525,-0.188997,1,0
2163,55,0.145023,0.207391,0.126264,0.253057,-0.124639,1,0
2174,55,0.075521,0.158063,0.053876,0.051151,-0.175596,1,1
2179,55,0.143596,0.178428,0.122577,0.156100,-0.196388,1,0
2173,55,0.230887,0.207923,0.104180,0.290745,-0.204181,1,0
2160,55,0.088163,0.124574,0.037319,0.104198,-0.194880,1,1
2176,55,0.091516,0.131738,0.039387,0.199744,-0.115620,1,1
2219,56,0.110706,0.165503,0.084139,0.222795,-0.205871,1,1
2233,56,0.181639,0.060777,0.426265,0.129724,-0.094147,1,1
2216,56,0.104081,0.121223,0.100270,0.099988,-0.097682,1,1
2226,56,0.108657,0.127891,0.358605,0.103993,0.092563,1,1
2208,56,0.096630,0.214440,0.153776,0.235160,-0.214710,1,1
2221,56,0.134358,0.082234,0.479540,0.190010,0.040587,1,1
2207,56,0.109508,0.213859,0.218409,0.137466,-0.231755,1,1
2234,56,0.006939,0.120347,0.385744,0.138704,0.054017,1,1
2237,56,0.030953,0.126568,0.510220,0.090492,0.036042,1,1
2232,56,0.060911,0.137821,0.432162,0.120453,0.025456,1,1
2224,56,0.045861,0.096134,0.451623,0.051523,0.033382,1,1
2212,56,0.212467,0.186112,0.139221,0.183847,-0.225956,1,0
2203,56,0.164948,0.163938,0.118616,0.190975,-0.258603,1,1
2206,56,0.135508,0.043404,0.064922,0.154456,-0.168034,1,1
2231,56,-0.034376,0.188067,0.413231,0.079936,0.087018,0,1
2223,56,0.036587,0.137417,0.475429,0.108558,0.104933,1,1
2211,56,0.159978,0.129835,0.115258,0.178188,-0.260053,1,1
2217,56,0.071268,0.149977,0.055014,0.186337,-0.235502,1,1
2210,56,0.173709,0.143952,0.139966,0.190259,-0.257862,1,1
2200,56,0.141975,0.168294,0.200411,0.214916,-0.162615,1,1
2202,56,0.162534,0.142002,0.163331,0.126183,-0.131596,1,1
2228,56,0.109977,0.081587,0.433180,0.119298,0.061811,1,1
2235,56,0.026798,0.107596,0.371771,0.152121,0.005038,1,1
2201,56,0.093359,0.216479,0.160109,0.177897,-0.135321,1,1
2225,56,0.067718,0.096234,0.512691,0.211010,0.114198,1,1
2220,56,0.149979,0.042266,0.373356,0.132098,0.064909,1,1
2238,56,0.172924,0.015931,0.485688,0.136893,0.069193,1,1
2215,56,0.185318,0.017004,0.185965,0.152081,-0.155915,1,1
2214,56,0.166005,0.138859,0.144578,0.107257,-0.232477,1,1
2227,56,0.023368,0.103521,0.462125,0.119448,0.035820,1,1
2222,56,0.196656,0.025449,0.386377,0.055524,0.077348,1,1
2205,56,0.159464,0.094671,0.090725,0.180177,-0.228060,1,1
2239,56,0.186606,0.061963,0.515533,0.120469,0.039808,1,1
2209,56,0.042101,0.125533,0.048460,0.340926,-0.093172,1,1
2218,56,0.193248,0.144374,0.182011,0.137101,-0.229108,1,1
2204,56,0.130323,0.222694,0.106332,0.204897,-0.122938,1,1
2213,56,0.077957,0.122708,0.074010,0.195475,-0.157146,1,1
2229,56,0.095017,0.097907,0.377630,0.133331,0.062541,1,1
2230,56,0.134650,0.151902,0.477543,0.192496,0.015376,1,1
2236,56,0.103444,0.037734,0.424221,0.093817,0.031345,1,1
2256,57,0.217609,0.067887,0.012282,0.223839,-0.167763,1,1
2243,57,0.157803,0.147074,0.048147,0.180251,-0.117578,1,1
2240,57,0.128982,0.036592,0.056495,0.173554,-0.182325,1,1
2273,57,0.121242,0.150069,0.391294,0.076567,-0.099413,1,1
2275,57,0.102424,0.210084,0.464945,0.139970,0.000349,1,1
2249,57,0.145820,0.093982,0.141371,0.020991,-0.189134,1,1
2250,57,0.212626,0.127648,0.236485,0.224468,-0.179170,1,1
2252,57,0.193821,0.097896,0.129177,0.109004,-0.254712,1,1
2258,57,0.231975,0.108981,0.064108,0.150498,-0.151235,1,1
2261,57,0.169331,0.210666,0.409005,0.228079,0.070261,1,1
2247,57,0.190641,0.138453,0.176322,0.217193,-0.079971,1,1
2241,57,0.143503,0.112815,0.074482,0.245638,-0.182157,1,1
2244,57,0.218885,-0.030837,0.087180,0.268028,-0.156372,1,0
2254,57,0.165310,0.031409,-0.024296,0.118316,-0.091938,1,1
2271,57,0.141495,0.178777,0.532591,0.141900,0.038928,1,1
2253,57,0.160132,0.046229,0.101219,0.155174,-0.234892,1,1
2262,57,0.063302,0.124376,0.466632,0.132095,-0.063231,1,1
2276,57,0.102566,0.238053,0.393857,0.102915,0.028465,0,1
2270,57,0.017364,0.061370,0.373344,0.084224,0.003692,0,1
2277,57,0.135956,0.129386,0.473317,0.171991,-0.025904,1,1
2269,57,0.026309,0.125404,0.456759,0.153595,0.089699,0,1
2265,57,0.088573,0.216123,0.398146,0.212951,0.073649,1,1
2272,57,0.078324,0.156736,0.438305,0.091977,0.023825,1,1
2257,57,0.235756,0.045692,0.098555,0.113461,-0.221687,1,0
2267,57,0.095987,0.046049,0.450251,0.163947,-0.048870,1,1
2274,57,0.093087,0.111482,0.382630,0.143926,0.120421,1,1
2278,57,0.023459,0.135781,0.525902,0.058222,-0.018548,0,1
2264,57,0.067465,0.103145,0.403719,0.147690,0.046605,1,1
2246,57,0.162239,0.080706,0.091677,0.177888,-0.119163,1,1
2245,57,0.145607,0.106459,0.099869,0.087359,-0.149531,1,1
2251,57,0.277652,0.188911,0.156996,0.165457,-0.171621,1,0
2263,57,0.112383,0.115092,0.469642,0.181233,-0.022093,1,1
2255,57,0.105277,0.114298,0.041691,0.119206,-0.174106,1,1
2279,57,0.060310,0.178224,0.388469,0.134855,-0.041999,1,1
2268,57,0.139272,0.169184,0.440599,0.139922,0.190393,1,1
2242,57,0.178148,0.023330,0.181367,0.103976,-0.101321,1,1
2259,57,0.182063,0.134185,0.087928,0.244535,-0.198357,1,1
2260,57,0.072730,0.185615,0.532241,0.090350,0.035510,1,1
2266,57,0.110056,0.145781,0.405436,0.184219,0.048155,1,1
2248,57,0.209113,0.039198,0.133765,0.175599,-0.103070,1,1
2296,58,0.144604,0.078944,0.115467,0.090101,-0.118720,1,1
2289,58,0.182406,0.121947,0.035629,0.186255,-0.192762,1,0
2312,58,0.041221,0.213352,0.430371,0.078416,0.034130,0,1
2299,58,0.152730,0.199058,0.080166,0.089912,-0.184438,1,1
2290,58,0.194578,0.101303,0.124793,0.092309,-0.235707,1,0
2316,58,0.120787,0.160965,0.294253,0.133158,-0.001284,1,1
2311,58,0.081891,0.236138,0.389306,0.196970,0.010470,0,1
2295,58,0.246972,0.045738,0.107983,0.196686,-0.165702,1,0
2307,58,0.077245,0.175252,0.387199,0.119955,0.121483,0,1
2294,58,0.162074,0.072890,0.029396,0.161261,-0.187759,1,0
2313,58,0.000254,0.259262,0.469892,0.109767,-0.025056,0,1
2282,58,0.175989,0.016582,0.007770,0.076762,-0.176670,1,0
2284,58,0.067983,0.047468,0.062129,0.198029,-0.216414,1,1
2288,58,0.198270,0.120220,0.071560,0.115586,-0.203731,1,0
2291,58,0.190296,-0.003537,0.086914,0.158856,-0.120099,1,0
2283,58,0.265681,0.072143,0.035553,0.170260,-0.130619,1,0
2308,58,0.044383,0.136854,0.473398,0.145310,0.004995,0,1
2285,58,0.250742,0.053619,0.080063,0.147609,-0.198891,1,0
2298,58,0.144171,0.065228,0.119031,0.064575,-0.202313,1,0
2304,58,0.042071,0.126257,0.463631,0.156791,-0.100178,0,1
2318,58,0.080287,0.238484,0.315384,0.197203,0.044638,0,1
2317,58,0.225374,0.174861,0.311302,0.152270,-0.016303,1,1
2314,58,0.136576,0.190592,0.451299,0.117685,0.013880,1,1
2301,58,0.121534,0.237706,0.346619,0.119328,-0.002705,0,1
2319,58,0.052050,0.147141,0.553329,0.199250,0.040499,0,1
2286,58,0.176410,0.010938,0.071707,0.137240,-0.249026,1,0
2293,58,0.233116,-0.001559,0.018925,0.174576,-0.127766,1,0
2303,58,0.054124,0.133627,0.464296,0.053168,0.001342,0,1
2281,58,0.105830,0.059677,0.132003,0.068129,-0.226080,1,1
2306,58,0.037924,0.192313,0.451086,0.153651,-0.012104,0,1
2287,58,0.234943,0.057045,0.065069,0.073301,-0.244761,1,0
2280,58,0.213134,0.111155,0.073339,0.115709,-0.174125,1,0
2297,58,0.242634,0.070050,0.038833,0.152874,-0.210700,1,0
2292,58,0.164515,-0.086930,0.014491,0.214011,-0.251658,1,0
2300,58,0.009750,0.181233,0.454590,0.034531,0.054649,0,1
2315,58,0.043057,0.171641,0.379820,0.078091,0.030547,0,1
2310,58,0.034671,0.139049,0.438752,0.101103,0.013723,0,1
2305,58,0.005454,0.125960,0.395828,0.183974,0.022291,0,1
2309,58,-0.028713,0.220510,0.469355,0.110857,-0.028233,0,1
2302,58,0.057636,0.125853,0.428135,0.154016,-0.011204,1,1
2335,59,0.076840,0.011673,0.104861,0.059596,-0.179864,1,0
2355,59,-0.245690,0.200313,0.435493,0.154394,0.008647,0,1
2342,59,-0.133013,0.164055,0.468551,0.034826,-0.103006,0,1
2348,59,-0.130298,0.097091,0.481578,-0.007029,-0.015401,0,1
2346,59,-0.280596,0.139176,0.507765,0.049087,0.010383,0,1
2354,59,-0.165598,0.110148,0.391582,0.132816,-0.007569,0,1
2328,59,0.154019,-0.014150,0.002941,0.107071,-0.203531,1,0
2329,59,0.233904,-0.027901,0.047103,0.152703,-0.195576,1,0
2359,59,-0.035955,0.215430,0.430125,0.063590,0.016332,0,1
2353,59,-0.149772,0.198503,0.481147,0.004324,0.011532,0,1
2322,59,0.169071,0.041941,0.048333,0.136058,-0.200767,1,0
2327,59,0.189366,-0.041966,0.116803,0.178369,-0.267797,1,0
2352,59,-0.098070,0.163893,0.421333,-0.016787,0.047872,0,1
2356,59,-0.164528,0.203468,0.439897,0.075129,-0.002513,0,1
2320,59,0.191383,-0.056068,0.042723,0.133077,-0.207834,1,0
2337,59,0.248468,0.022905,0.076000,0.111265,-0.134380,1,0
2357,59,-0.192558,0.125104,0.461114,0.026122,0.070637,0,1
2350,59,-0.156693,0.119647,0.389420,0.078250,0.074956,0,1
2321,59,0.099005,-0.062252,0.054936,0.102715,-0.143144,1,0
2333,59,0.156043,-0.017453,0.048507,0.087673,-0.198965,1,0
2325,59,0.158217,0.034617,0.111663,0.072434,-0.244364,1,0
2343,59,-0.160765,0.109801,0.440026,0.074700,-0.026981,0,1
2323,59,0.131698,0.033944,0.089286,0.133412,-0.186190,1,0
2349,59,-0.143873,0.161723,0.423111,0.035756,0.009428,0,1
2331,59,0.190284,0.086993,-0.051979,0.085355,-0.214240,1,0
2336,59,0.083168,-0.065867,0.087607,0.077844,-0.199242,1,0
2347,59,-0.218284,0.136572,0.338686,-0.031053,0.019603,0,1
2341,59,-0.108389,0.102597,0.329314,0.090260,0.043663,0,1
2324,59,0.179316,0.005805,0.148199,0.055935,-0.202550,1,0
2351,59,-0.098857,0.218691,0.458977,0.073221,0.012907,0,1
2345,59,-0.122314,0.173945,0.325008,0.095137,-0.032317,0,1
2338,59,0.260718,0.013435,0.042049,0.096150,-0.266327,1,0
2332,59,0.163681,-0.014413,0.130092,0.077826,-0.172534,1,0
2334,59,0.178542,-0.023307,0.095805,0.141389,-0.067964,1,0
2344,59,-0.177089,0.090905,0.413605,0.010675,0.092028,0,1
2358,59,-0.144865,0.217850,0.436128,0.007997,0.008489,0,1
2326,59,0.196977,-0.056480,0.030949,0.077084,-0.207713,1,0
2339,59,0.119105,-0.047302,0.168154,0.017560,-0.173352,1,0
2330,59,0.153167,-0.123668,0.151627,0.192448,-0.280700,1,0
2340,59,-0.108946,0.292268,0.442043,0.039574,0.079618,0,1
2376,60,0.110129,-0.071357,0.032029,0.103406,-0.191589,1,0
2391,60,-0.414035,0.241246,0.425348,-0.121905,0.046186,0,1
2396,60,-0.269197,0.139219,0.449922,-0.060072,0.053887,0,1
2371,60,0.125448,-0.133972,0.003386,0.088481,-0.244268,1,0
2399,60,-0.303205,0.158744,0.381624,-0.074764,0.060284,0,1
2394,60,-0.309411,0.148049,0.516750,-0.042001,-0.006399,0,1
2379,60,0.108024,-0.064488,-0.010154,0.099904,-0.269343,1,0
2389,60,-0.385080,0.095538,0.414851,-0.102221,0.130425,0,1
2375,60,0.102967,-0.091723,0.039247,0.011914,-0.180322,1,0
2393,60,-0.306226,0.142099,0.397358,-0.035738,0.051390,0,1
2385,60,-0.313912,0.157725,0.400423,0.013904,0.016502,0,1
2364,60,0.254257,-0.064199,0.044967,0.076982,-0.159754,1,0
2392,60,-0.275516,0.114164,0.393768,0.090458,0.060314,0,1
2363,60,0.112528,-0.028454,-0.005484,0.021912,-0.202658,1,0
2388,60,-0.269088,0.133496,0.381216,0.003884,0.070085,0,1
2374,60,0.086543,-0.046994,0.048584,0.100668,-0.143144,1,0
2370,60,0.051131,-0.079824,0.056601,0.103157,-0.204683,1,0
2382,60,-0.316539,0.216583,0.390146,-0.050331,0.066465,0,1
2398,60,-0.316145,0.130662,0.395678,-0.120057,0.026156,0,1
2395,60,-0.375776,0.171524,0.478359,-0.058975,0.004206,0,1
2384,60,-0.293744,0.142009,0.374154,-0.068246,0.045252,0,1
2372,60,0.086674,-0.063367,0.040876,0.088575,-0.181177,1,0
2381,60,-0.313460,0.055085,0.417155,-0.074144,-0.015863,0,1
2397,60,-0.251004,0.147481,0.381373,-0.014364,0.029657,0,1
2373,60,0.108193,-0.143097,0.022197,-0.002238,-0.147923,1,0
2366,60,0.080075,-0.009071,0.130760,0.058660,-0.261400,1,0
2360,60,0.057587,-0.035634,0.133289,0.050948,-0.216372,1,0
2386,60,-0.354934,0.164793,0.403421,0.020844,-0.068654,0,1
2377,60,0.129922,-0.072909,0.069174,0.095872,-0.277968,1,0
2369,60,0.030987,0.047305,0.083309,-0.064085,-0.185097,1,0
2362,60,0.106163,0.000604,0.100585,0.096834,-0.141580,1,0
2380,60,-0.235419,0.117546,0.364454,-0.196416,0.043545,0,1
2383,60,-0.231547,0.117248,0.375956,-0.090646,-0.001239,0,1
2367,60,-0.007179,-0.167716,0.115665,-0.007522,-0.227771,1,0
2361,60,0.144160,0.019964,0.092806,0.076268,-0.136218,1,0
2378,60,0.112737,-0.126472,0.089120,0.124076,-0.180904,1,0
2365,60,0.108438,-0.108602,-0.006372,0.020807,-0.241573,1,0
2387,60,-0.368883,0.099195,0.490698,-0.168749,0.082759,0,1
2368,60,0.057265,-0.145129,0.093020,0.105391,-0.257414,1,0
2390,60,-0.391602,0.086608,0.318167,-0.035422,0.108182,0,1
2428,61,-0.404218,0.153644,0.469815,-0.044089,0.054285,0,1
2416,61,0.013373,-0.091165,0.111020,-0.073851,-0.219136,1,0
2402,61,-0.158364,-0.089324,0.022393,-0.079348,-0.122057,1,0
2407,61,-0.025605,-0.115977,0.068388,-0.049365,-0.305507,1,0
2417,61,-0.045960,-0.105424,0.050657,-0.021801,-0.225051,1,0
2403,61,0.050615,-0.095183,0.071926,-0.039590,-0.269814,1,0
2404,61,-0.052073,-0.137240,0.011003,-0.113013,-0.200561,1,0
2425,61,-0.370066,0.002558,0.356070,0.001751,0.035932,0,1
2439,61,-0.429791,0.123704,0.396129,-0.156497,0.026067,0,1
2412,61,-0.049434,-0.176129,-0.048571,-0.094252,-0.144787,1,0
2405,61,0.041850,-0.118142,0.124016,-0.096063,-0.208879,1,0
2401,61,0.019628,-0.114252,0.057728,-0.010696,-0.233677,1,0
2430,61,-0.325453,0.078275,0.447585,-0.100103,-0.070442,0,1
2424,61,-0.438318,0.096526,0.379768,-0.169876,-0.097109,0,1
2408,61,-0.097798,-0.173023,0.009918,-0.079110,-0.192472,1,0
2427,61,-0.378144,0.117157,0.390509,-0.186430,0.049094,0,1
2437,61,-0.358577,0.084512,0.357935,-0.143970,0.095539,0,1
2421,61,-0.477306,0.133104,0.388971,-0.168398,0.011250,0,1
2434,61,-0.290388,0.061775,0.495400,-0.022691,-0.054891,0,1
2414,61,-0.071312,-0.062474,0.120951,-0.012728,-0.162635,1,0
2423,61,-0.502695,0.114626,0.443334,-0.160684,0.059195,0,1
2400,61,-0.060771,-0.188253,0.085494,-0.100783,-0.226041,1,0
2436,61,-0.509997,0.146729,0.451046,-0.058379,0.062458,0,1
2422,61,-0.396607,0.130697,0.430251,-0.176285,-0.035692,0,1
2409,61,-0.073422,-0.140989,0.027978,-0.080221,-0.268286,1,0
2432,61,-0.379990,0.166668,0.285439,-0.167171,0.017705,0,1
2406,61,-0.077095,-0.167231,0.084208,-0.047750,-0.133220,1,0
2413,61,0.014909,-0.263876,-0.064555,0.036851,-0.222039,1,0
2433,61,-0.389897,0.067087,0.426232,-0.147400,0.126544,0,1
2418,61,0.024235,-0.134297,0.027526,-0.034232,-0.172654,1,0
2426,61,-0.340121,0.103840,0.398172,-0.131181,0.127009,0,1
2431,61,-0.307764,0.098551,0.475266,-0.157797,-0.078183,0,1
2415,61,-0.059973,-0.104023,0.041381,-0.077779,-0.217123,1,0
2410,61,-0.043534,-0.143698,0.134386,-0.167715,-0.143609,1,0
2435,61,-0.386718,-0.011279,0.418138,-0.112841,-0.172132,0,1
2438,61,-0.401537,0.164309,0.441878,-0.116959,-0.064720,0,1
2429,61,-0.344470,0.061923,0.398178,-0.029655,-0.074283,0,1
2419,61,-0.122731,-0.071691,-0.019296,-0.104216,-0.246302,1,0
2420,61,-0.463833,0.114190,0.360693,-0.110692,0.044858,0,1
2411,61,-0.115657,-0.140001,0.110859,-0.027259,-0.197733,1,0
2467,62,-0.413354,0.122008,0.459522,-0.194427,0.060411,0,1
2468,62,-0.401583,0.023210,0.408522,-0.206014,0.067194,0,1
2443,62,-0.188247,-0.178230,0.119979,-0.067729,-0.179740,1,0
2476,62,-0.448926,0.048764,0.425784,-0.090670,0.006041,0,1
2478,62,-0.334779,0.004939,0.469826,-0.159316,0.022647,0,1
2475,62,-0.331232,0.056283,0.396490,-0.210464,-0.086834,0,1
2464,62,-0.452952,0.000923,0.397365,-0.205307,-0.040328,0,1
2456,62,-0.223408,-0.151154,0.042139,-0.171655,-0.161336,1,0
2463,62,-0.304753,-0.061472,0.409655,-0.187066,0.005434,0,1
2470,62,-0.412628,0.096873,0.348487,-0.170547,0.006511,0,1
2448,62,-0.148578,-0.195814,0.092853,-0.145025,-0.201982,1,0
2455,62,-0.180148,-0.160353,0.083535,-0.206818,-0.201554,1,0
2465,62,-0.494238,-0.063260,0.399945,-0.175970,-0.032426,0,1
2473,62,-0.398192,-0.006640,0.394334,-0.117393,0.006953,0,1
2462,62,-0.443696,0.007343,0.324603,-0.183854,-0.109504,0,1
2460,62,-0.418513,0.053291,0.441054,-0.151246,0.059842,0,1
2477,62,-0.476366,0.036014,0.370880,-0.104022,-0.087555,0,1
2466,62,-0.564816,0.063673,0.332610,-0.202565,0.001435,0,1
2457,62,-0.281221,-0.173404,0.110302,-0.150770,-0.246080,1,0
2454,62,-0.189129,-0.198768,0.056353,-0.126941,-0.142677,1,0
2442,62,-0.172190,-0.100049,0.082462,-0.168699,-0.164857,1,0
2453,62,-0.156909,-0.124960,0.139615,-0.180233,-0.193197,1,0
2472,62,-0.383466,0.033496,0.317553,-0.178591,-0.032516,0,1
2441,62,-0.204147,-0.091998,0.037302,-0.080853,-0.186312,1,0
2445,62,-0.156295,-0.192744,0.095888,-0.111565,-0.234355,1,0
2444,62,-0.177803,-0.219759,-0.092316,-0.198953,-0.070034,1,0
2440,62,-0.145947,-0.020323,0.156389,-0.092501,-0.182288,1,0
2479,62,-0.390641,-0.021661,0.404384,-0.202203,0.077384,0,1
2450,62,-0.183906,-0.195003,0.043800,-0.162636,-0.202597,1,0
2474,62,-0.397039,0.085172,0.428635,-0.061527,0.035756,0,1
2446,62,-0.165655,-0.239227,0.068596,-0.107318,-0.244291,1,0
2451,62,-0.123561,-0.186569,0.042682,-0.156381,-0.183560,1,0
2459,62,-0.164687,-0.161538,0.106878,-0.145395,-0.171742,1,0
2469,62,-0.422239,-0.031888,0.378535,-0.177122,0.002229,0,1
2458,62,-0.243197,-0.150007,-0.020510,-0.124532,-0.218473,1,0
2452,62,-0.147728,-0.122965,0.092867,-0.147123,-0.112348,1,0
2471,62,-0.428180,0.057662,0.477356,-0.139115,-0.063072,0,1
2447,62,-0.200046,-0.115483,0.067863,-0.231016,-0.198214,1,0
2449,62,-0.121787,-0.170246,0.078440,-0.167720,-0.221737,1,0
2461,62,-0.457797,0.058368,0.389502,-0.150540,-0.046030,0,1
2496,63,-0.340182,-0.147702,-0.038712,-0.057264,-0.244055,1,1
2500,63,-0.432287,-0.016647,0.442863,-0.208656,-0.057071,0,1
2487,63,-0.242335,-0.100292,0.037932,-0.085865,-0.155166,1,0
2509,63,-0.389334,-0.067350,0.319095,-0.167378,-0.050403,0,1
2517,63,-0.426750,-0.005204,0.469060,-0.157565,-0.026089,0,1
2498,63,-0.251192,-0.158364,0.042477,-0.229559,-0.192861,1,0
2512,63,-0.457209,0.006250,0.359667,-0.213647,-0.029609,0,1
2508,63,-0.441514,-0.082557,0.432730,-0.212803,-0.020194,0,1
2488,63,-0.212888,-0.210670,0.006341,-0.207671,-0.193615,1,0
2515,63,-0.465057,-0.019078,0.333306,-0.229159,0.034256,0,1
2507,63,-0.402905,-0.001414,0.372940,-0.200455,0.011035,0,1
2513,63,-0.315909,-0.072259,0.337127,-0.209852,-0.044144,1,1
2492,63,-0.157992,-0.152987,0.111469,-0.243411,-0.173847,1,0
2482,63,-0.234996,-0.115033,-0.011255,-0.178206,-0.142092,1,0
2501,63,-0.424132,-0.038577,0.357134,-0.155553,-0.020050,0,1
2510,63,-0.353777,-0.142276,0.261996,-0.213023,-0.030567,1,1
2505,63,-0.407870,-0.057021,0.476131,-0.162230,-0.013356,0,1
2480,63,-0.239898,-0.124288,0.063051,-0.094301,-0.227350,1,0
2486,63,-0.252273,-0.119300,0.014902,-0.160717,-0.259829,1,0
2491,63,-0.166636,-0.203942,-0.032774,-0.171303,-0.209289,1,0
2484,63,-0.308742,-0.183642,0.033007,-0.211531,-0.209275,1,0
2494,63,-0.238111,-0.115958,-0.007179,-0.156223,-0.229628,1,0
2495,63,-0.243278,-0.092878,0.038809,-0.128914,-0.241365,1,0
2497,63,-0.235172,-0.087533,0.044172,-0.239820,-0.190881,1,0
2504,63,-0.353346,-0.054872,0.400991,-0.215355,-0.045419,0,1
2518,63,-0.492220,-0.037231,0.484628,-0.192554,0.026235,0,1
2502,63,-0.473542,0.011217,0.376763,-0.191570,-0.029686,0,1
2489,63,-0.223344,-0.126468,0.119191,-0.171164,-0.265177,1,0
2503,63,-0.485603,-0.025828,0.339032,-0.195136,0.049523,0,1
2519,63,-0.367446,-0.008379,0.458155,-0.131677,-0.069731,0,1
2493,63,-0.200588,-0.048775,0.020554,-0.129170,-0.253703,1,0
2485,63,-0.254683,-0.123850,0.000013,-0.131682,-0.225318,1,0
2490,63,-0.239634,-0.124848,0.001716,-0.118873,-0.201611,1,0
2499,63,-0.163789,-0.088742,0.101310,-0.168587,-0.197559,1,0
2511,63,-0.416304,-0.095755,0.347639,-0.231464,-0.027538,0,1
2514,63,-0.393055,-0.057371,0.310197,-0.197468,-0.144696,0,1
2516,63,-0.414221,-0.109055,0.409312,-0.185634,-0.072784,0,1
2483,63,-0.237834,-0.064152,0.150152,-0.220805,-0.239461,1,0
2481,63,-0.228206,-0.238465,0.064607,-0.225805,-0.154309,1,0
2506,63,-0.391024,-0.038563,0.366861,-0.213075,-0.016259,0,1
2524,64,-0.318998,-0.165023,0.000465,-0.178120,0.421214,1,1
2520,64,-0.332040,-0.108733,0.011572,-0.188232,0.440223,1,1
2540,64,-0.310690,-0.199977,0.482418,-0.203181,0.077394,1,1
2559,64,-0.390000,-0.152430,0.394006,-0.187528,-0.032011,1,1
2552,64,-0.439012,-0.114265,0.359248,-0.227189,-0.022440,1,1
2525,64,-0.186636,-0.139544,0.027833,-0.205199,0.473482,1,0
2547,64,-0.267537,-0.100558,0.369784,-0.198734,-0.122514,1,1
2531,64,-0.298748,-0.138245,0.139810,-0.239067,0.333455,1,1
2534,64,-0.343557,-0.157577,0.016904,-0.178258,0.464775,1,1
2529,64,-0.328696,-0.173729,0.032144,-0.159683,0.448374,1,1
2527,64,-0.327912,-0.081286,-0.003865,-0.133862,0.483776,1,1
2533,64,-0.319246,-0.086827,-0.019832,-0.265125,0.420848,1,1
2532,64,-0.283296,-0.112541,0.014118,-0.314479,0.462874,1,1
2523,64,-0.367609,-0.173785,0.045965,-0.201029,0.467628,1,1
2546,64,-0.417710,-0.227475,0.494781,-0.264012,-0.057579,1,1
2539,64,-0.331591,-0.172614,0.048016,-0.168113,0.544185,1,1
2551,64,-0.330335,-0.122516,0.397614,-0.185977,-0.137606,1,1
2521,64,-0.299409,-0.103660,0.036901,-0.170156,0.499119,1,1
2553,64,-0.391168,-0.096614,0.324064,-0.248322,-0.129903,1,1
2545,64,-0.345093,-0.157185,0.365557,-0.276461,0.043867,1,1
2535,64,-0.288975,-0.151645,-0.008868,-0.114073,0.475068,1,1
2522,64,-0.341254,-0.198348,0.046680,-0.067552,0.443336,1,1
2555,64,-0.345695,-0.047220,0.411718,-0.195251,0.010747,1,1
2557,64,-0.402098,-0.203216,0.361053,-0.231558,-0.047930,1,1
2543,64,-0.279978,-0.179249,0.367437,-0.170759,-0.047491,1,1
2528,64,-0.251420,-0.085698,0.058751,-0.333582,0.483376,1,1
2558,64,-0.389769,-0.169931,0.448346,-0.218683,-0.018899,1,1
2541,64,-0.316755,-0.146987,0.395725,-0.261651,-0.045342,1,1
2538,64,-0.266466,-0.220549,0.047218,-0.205421,0.507832,1,1
2536,64,-0.265225,0.001870,0.029659,-0.261591,0.468042,1,0
2544,64,-0.382406,-0.131241,0.475465,-0.246893,-0.060834,1,1
2556,64,-0.350230,-0.066923,0.326811,-0.216262,-0.068083,1,1
2530,64,-0.288726,-0.252970,0.102792,-0.180573,0.399004,1,1
2549,64,-0.435721,-0.250613,0.415306,-0.232992,0.052173,0,1
2526,64,-0.246132,-0.141326,0.040581,-0.250027,0.497103,1,1
2548,64,-0.240826,-0.099516,0.294174,-0.185272,0.022441,1,1
2550,64,-0.414861,-0.200306,0.389850,-0.260695,0.042471,1,1
2542,64,-0.456730,-0.241306,0.440087,-0.193218,-0.011717,0,1
2537,64,-0.338639,-0.102752,-0.011703,-0.271871,0.456899,1,1
2554,64,-0.365503,-0.170065,0.453468,-0.236696,0.001324,1,1
2577,65,-0.389494,-0.189951,0.110745,-0.151742,0.528717,1,1
2567,65,-0.419489,-0.093322,-0.017563,-0.281755,0.463146,1,1
2593,65,-0.390897,-0.113707,0.479046,-0.238828,0.031341,1,1
2584,65,-0.290288,-0.183976,0.447851,-0.232644,0.059155,1,1
2561,65,-0.351952,-0.128016,-0.015060,-0.115748,0.432820,1,1
2564,65,-0.347871,-0.101736,-0.085220,-0.350421,0.460270,1,1
2565,65,-0.306158,-0.201865,0.146724,-0.184323,0.387581,1,1
2592,65,-0.280379,-0.128762,0.367264,-0.180995,0.030686,1,1
2594,65,-0.331157,-0.267839,0.330345,-0.162765,-0.015044,1,1
2597,65,-0.251330,-0.103113,0.302277,-0.185834,-0.122533,1,1
2563,65,-0.351157,-0.098589,0.112237,-0.307214,0.389825,1,1
2575,65,-0.399057,-0.199165,0.047418,-0.244134,0.410082,1,1
2566,65,-0.344181,-0.079037,-0.012350,-0.245800,0.483980,1,1
2560,65,-0.384958,-0.073328,0.052742,-0.187506,0.375998,1,1
2576,65,-0.391930,-0.193881,0.083622,-0.254130,0.433955,1,1
2588,65,-0.373748,-0.087805,0.290527,-0.180719,-0.079879,1,1
2579,65,-0.423595,-0.166471,0.058566,-0.331879,0.355309,1,1
2562,65,-0.333674,-0.155181,0.071724,-0.354599,0.416437,1,1
2580,65,-0.312993,-0.131956,0.373116,-0.278294,0.001674,1,1
2583,65,-0.340144,-0.131430,0.399193,-0.208222,-0.056308,1,1
2585,65,-0.315395,-0.188347,0.368229,-0.185758,0.046223,1,1
2572,65,-0.373835,-0.181710,0.128194,-0.201884,0.421236,1,1
2590,65,-0.415447,-0.174017,0.388912,-0.217872,-0.018392,1,1
2595,65,-0.341786,-0.109940,0.447260,-0.167879,-0.071051,1,1
2596,65,-0.252389,-0.155800,0.325046,-0.256752,0.054522,1,1
2598,65,-0.379522,-0.144311,0.365421,-0.153619,-0.068303,1,1
2591,65,-0.301756,-0.182179,0.417507,-0.243106,-0.042611,1,1
2569,65,-0.388119,-0.214752,0.022833,-0.270700,0.361199,1,1
2573,65,-0.319121,-0.165258,0.055803,-0.237302,0.470602,1,1
2599,65,-0.428588,-0.196961,0.328217,-0.299865,-0.014817,1,1
2568,65,-0.409747,-0.169912,0.004854,-0.254966,0.456163,1,1
2571,65,-0.276457,-0.056213,-0.007191,-0.109007,0.417067,1,1
2587,65,-0.328972,-0.172816,0.248853,-0.154041,-0.018878,1,1
2586,65,-0.287018,-0.175137,0.397167,-0.223628,0.009141,1,1
2570,65,-0.453475,-0.138163,0.072368,-0.234730,0.503348,1,1
2574,65,-0.393139,-0.127544,0.027178,-0.244022,0.520874,1,1
2582,65,-0.349180,-0.194590,0.300943,-0.184362,-0.017791,1,1
2589,65,-0.256511,-0.116629,0.431848,-0.199354,0.070737,1,1
2578,65,-0.380387,-0.183286,0.014417,-0.249588,0.449383,1,1
2581,65,-0.320550,-0.095202,0.398945,-0.179453,-0.030685,1,1
2635,66,-0.075764,-0.187955,0.326838,-0.165443,-0.131661,0,1
2625,66,-0.208235,-0.230623,0.361560,-0.262026,-0.028619,0,1
2604,66,-0.403969,-0.102062,-0.014743,-0.133263,0.458021,1,0
2616,66,-0.304461,-0.161742,-0.003627,-0.178281,0.463447,1,1
2620,66,-0.100047,-0.248717,0.427833,-0.277408,-0.036242,0,1
2601,66,-0.463316,-0.141911,-0.023823,-0.177152,0.397687,1,0
2626,66,-0.189635,-0.116268,0.481548,-0.077377,-0.022515,0,1
2632,66,-0.240874,-0.152033,0.382944,-0.155852,-0.030134,0,1
2622,66,-0.250598,-0.156559,0.400061,-0.131608,-0.028588,1,1
2633,66,-0.267875,-0.259378,0.468741,-0.147223,-0.077634,0,1
2600,66,-0.340935,-0.053235,-0.014280,-0.198671,0.498259,1,0
2609,66,-0.533992,-0.157332,0.126975,-0.257356,0.404887,1,0
2637,66,-0.336504,-0.077426,0.425436,-0.095835,-0.016062,1,1
2615,66,-0.425244,-0.085143,-0.006680,-0.142018,0.441214,1,0
2621,66,-0.164357,-0.168138,0.282752,-0.120418,-0.102175,0,1
2603,66,-0.258246,-0.143971,0.043546,-0.182246,0.429059,1,1
2607,66,-0.355265,-0.062864,0.069417,-0.143608,0.486300,1,0
2623,66,-0.192377,-0.182842,0.395546,-0.096364,-0.011129,0,1
2627,66,-0.179222,-0.129799,0.333151,-0.220354,0.028245,0,1
2619,66,-0.403754,-0.067988,0.057259,-0.170452,0.405201,1,0
2629,66,-0.241099,-0.083341,0.394513,-0.171974,-0.063402,1,1
2617,66,-0.338546,-0.028511,-0.002893,-0.216780,0.428149,1,0
2606,66,-0.440415,-0.087618,0.069143,-0.205664,0.532125,1,0
2634,66,-0.228036,-0.187419,0.326499,-0.090848,0.059479,0,1
2624,66,-0.266390,-0.130348,0.394694,-0.140523,-0.051444,1,1
2605,66,-0.475306,-0.064757,-0.019130,-0.236392,0.455979,1,0
2612,66,-0.339335,-0.054284,-0.006598,-0.274091,0.439324,1,0
2630,66,-0.259856,-0.182066,0.403380,-0.227179,0.028221,0,1
2613,66,-0.323190,-0.074354,0.028085,-0.156196,0.457712,1,1
2618,66,-0.459090,-0.078862,-0.025397,-0.097010,0.368271,1,0
2639,66,-0.277316,-0.126046,0.381258,-0.069466,0.003420,1,1
2636,66,-0.213765,-0.125386,0.374628,-0.093545,-0.056155,0,1
2638,66,-0.202292,-0.207566,0.533207,-0.179031,-0.068572,0,1
2602,66,-0.448690,-0.138982,0.055921,-0.246647,0.423363,1,0
2628,66,-0.267839,-0.140342,0.356190,-0.194949,-0.033741,1,1
2614,66,-0.296509,-0.125553,0.026602,-0.198448,0.374046,1,1
2608,66,-0.433923,-0.038651,0.072730,-0.213527,0.393592,1,0
2611,66,-0.315098,-0.188405,0.051845,-0.330770,0.468584,1,1
2610,66,-0.392436,-0.082272,-0.099207,-0.291719,0.355278,1,0
2631,66,-0.217592,-0.095827,0.436093,-0.067943,0.026057,0,1
2664,67,-0.097115,-0.209042,0.332742,-0.169918,-0.091925,0,1
2673,67,-0.066806,-0.191488,0.321472,-0.139157,-0.080542,0,1
2658,67,-0.481094,-0.077895,0.044941,-0.182593,0.400183,1,0
2647,67,-0.361017,-0.109334,0.025420,-0.223183,0.390517,1,0
2640,67,-0.399050,-0.036501,0.061834,-0.215300,0.430062,1,0
2662,67,-0.165407,-0.140078,0.260173,-0.168862,0.013130,0,1
2656,67,-0.401837,-0.100324,0.023059,-0.269863,0.518203,1,0
2651,67,-0.386083,-0.091425,-0.031275,-0.191823,0.487371,1,0
2671,67,-0.198096,-0.208202,0.387312,-0.062119,-0.048190,0,1
2641,67,-0.463513,0.011464,0.012308,-0.216256,0.485923,1,0
2643,67,-0.409227,0.036805,0.060049,-0.157951,0.450685,1,0
2644,67,-0.358541,-0.106110,-0.003331,-0.260533,0.427183,1,0
2665,67,-0.151622,-0.221024,0.330026,-0.077503,-0.081742,0,1
2645,67,-0.486004,-0.059101,0.000994,-0.222278,0.369353,1,0
2657,67,-0.358930,-0.128240,0.020467,-0.178568,0.376611,1,0
2663,67,-0.144369,-0.219924,0.340960,-0.135737,-0.058658,0,1
2675,67,-0.110226,-0.085023,0.369837,-0.143948,-0.104018,0,1
2653,67,-0.387812,-0.115412,-0.076059,-0.253555,0.392766,1,0
2679,67,-0.091471,-0.200905,0.350808,-0.013697,-0.046665,0,1
2650,67,-0.334305,-0.043012,-0.037756,-0.240595,0.408197,1,0
2659,67,-0.335770,0.104202,-0.017159,-0.158085,0.470335,1,0
2648,67,-0.348133,-0.060096,0.019860,-0.149676,0.393176,1,0
2660,67,-0.059160,-0.222481,0.389694,0.024429,0.007788,0,1
2674,67,-0.191373,-0.151873,0.375823,-0.059121,-0.013586,0,1
2661,67,-0.050946,-0.148978,0.365053,-0.054238,-0.005207,0,1
2668,67,-0.101642,-0.130461,0.284286,-0.115613,-0.052176,0,1
2669,67,-0.179949,-0.252692,0.401725,-0.120921,-0.061200,0,1
2667,67,-0.192943,-0.249448,0.370068,-0.027266,-0.030191,0,1
2642,67,-0.425185,-0.076400,-0.020976,-0.213659,0.439317,1,0
2672,67,-0.090903,-0.132400,0.327230,-0.098541,-0.020019,0,1
2666,67,-0.178871,-0.121512,0.352684,-0.083115,0.010974,0,1
2670,67,-0.129592,-0.113162,0.364087,-0.067867,0.017107,0,1
2649,67,-0.362918,-0.020727,0.077351,-0.222677,0.393626,1,0
2646,67,-0.315936,-0.066473,-0.039309,-0.224278,0.384542,1,0
2678,67,-0.132612,-0.042600,0.432071,-0.089693,-0.068326,0,1
2677,67,-0.070269,-0.158963,0.283075,-0.099609,0.016671,0,1
2676,67,-0.220532,-0.177418,0.380437,-0.087778,-0.096270,0,1
2652,67,-0.486484,-0.065316,-0.079211,-0.191130,0.438002,1,0
2655,67,-0.358102,-0.040895,-0.003373,-0.218227,0.379924,1,0
2654,67,-0.429296,-0.139467,0.028743,-0.135192,0.484624,1,0
2702,68,-0.017804,-0.116422,0.275799,-0.100132,0.007819,0,1
2708,68,-0.025388,-0.086054,0.295488,-0.107265,-0.025431,0,1
2718,68,0.082212,-0.116175,0.227613,-0.047114,-0.114022,0,1
2686,68,-0.280964,0.039289,-0.011573,-0.120832,0.395649,1,0
2700,68,0.006605,-0.173188,0.361988,0.004468,-0.050765,0,1
2714,68,0.004380,-0.156095,0.350104,-0.076586,-0.101613,0,1
2713,68,0.144463,-0.186607,0.267989,-0.130344,-0.058120,0,1
2687,68,-0.265533,-0.053478,-0.051701,-0.167687,0.428283,1,0
2685,68,-0.282142,-0.013929,0.038290,-0.183316,0.333643,1,0
2698,68,-0.366618,-0.107109,-0.013781,-0.110752,0.465984,1,0
2697,68,-0.340567,0.045558,0.090653,-0.249714,0.382750,1,0
2683,68,-0.244091,-0.095512,-0.068633,-0.151500,0.308000,1,0
2696,68,-0.361822,0.025450,0.003972,-0.186082,0.405507,1,0
2715,68,0.006254,-0.157271,0.320278,-0.106454,-0.010804,0,1
2719,68,0.022732,-0.124925,0.300525,-0.054146,-0.094689,0,1
2695,68,-0.340502,-0.106584,0.023500,-0.229708,0.444100,1,0
2707,68,-0.062096,-0.123800,0.383409,-0.026707,-0.079022,0,1
2693,68,-0.265537,-0.023743,-0.061493,-0.127201,0.415096,1,0
2684,68,-0.268418,-0.066470,-0.001596,-0.170388,0.329219,1,0
2710,68,-0.021323,-0.097841,0.435492,-0.087849,-0.059766,0,1
2711,68,0.030960,-0.177624,0.358082,0.039432,-0.046429,0,1
2712,68,0.033738,-0.083717,0.314653,0.042840,-0.026140,0,1
2703,68,0.010376,-0.159478,0.391633,-0.076601,-0.060894,0,1
2704,68,-0.055094,-0.144077,0.331240,-0.095507,-0.099649,0,1
2709,68,-0.077459,-0.063707,0.268517,-0.073561,-0.100948,0,1
2691,68,-0.326466,-0.070284,0.011182,-0.150345,0.353167,1,0
2694,68,-0.279657,-0.049256,0.027889,-0.183252,0.515099,1,0
2706,68,-0.012334,-0.218174,0.350070,0.024245,-0.118517,0,1
2716,68,-0.044058,-0.097672,0.350499,-0.041599,-0.094008,0,1
2705,68,0.028608,-0.091435,0.301543,-0.051607,-0.034264,0,1
2681,68,-0.300382,-0.052569,0.003869,-0.124492,0.450072,1,0
2699,68,-0.370470,0.009398,-0.026788,-0.105614,0.352198,1,0
2682,68,-0.343706,0.043660,-0.099785,-0.101170,0.393424,1,0
2688,68,-0.356823,0.008156,-0.054975,-0.100617,0.444939,1,0
2717,68,-0.038194,-0.201287,0.392837,-0.011951,-0.042260,0,1
2692,68,-0.320017,-0.042410,-0.109598,-0.108640,0.413228,1,0
2701,68,-0.019694,-0.164994,0.277917,-0.082428,-0.036749,0,1
2689,68,-0.380193,0.094902,-0.097198,-0.129330,0.368957,1,0
2680,68,-0.295866,0.040503,0.033852,-0.141731,0.398723,1,0
2690,68,-0.387588,-0.054672,-0.063077,-0.194523,0.420751,1,0
2742,69,0.051350,-0.111111,0.316928,0.053153,-0.088825,0,1
2747,69,0.155195,-0.124334,0.329860,-0.086994,-0.064846,0,1
2726,69,-0.121747,-0.093051,-0.051690,-0.021805,0.387382,1,0
2728,69,-0.179846,0.038987,-0.001914,-0.060004,0.425008,1,0
2741,69,0.019309,-0.019351,0.328151,-0.004047,-0.141904,0,1
2744,69,0.135091,-0.115830,0.387649,0.041051,-0.060440,0,1
2752,69,0.111619,-0.155535,0.368545,0.003857,-0.030833,0,1
2732,69,-0.255821,0.008239,-0.025555,-0.025999,0.431143,1,0
2757,69,0.046705,-0.161571,0.326490,-0.014784,0.049553,0,1
2748,69,0.059480,-0.212189,0.373187,-0.013453,-0.104902,0,1
2720,69,-0.183101,-0.100749,0.012492,-0.075240,0.386644,1,0
2749,69,0.145231,-0.104187,0.386981,0.047789,-0.036057,0,1
2737,69,-0.071255,0.030331,-0.106047,-0.108377,0.293958,1,0
2727,69,-0.355358,-0.008574,0.006407,-0.005416,0.310697,1,0
2745,69,0.087498,-0.020508,0.394610,-0.012020,-0.079892,0,1
2730,69,-0.140146,-0.017626,-0.007538,-0.043657,0.501717,1,0
2723,69,-0.126337,0.031954,-0.069233,-0.065092,0.434081,1,0
2746,69,0.128819,-0.186362,0.349994,0.053150,0.007008,0,1
2738,69,-0.129202,-0.000360,-0.007345,-0.033924,0.428037,1,0
2751,69,0.105173,-0.018909,0.451974,-0.031472,-0.062545,0,1
2733,69,-0.153546,0.087574,0.115218,-0.071783,0.404322,1,0
2729,69,-0.112147,-0.012009,-0.011443,-0.079883,0.498726,1,0
2734,69,-0.166177,0.000729,-0.022486,0.032153,0.371391,1,0
2759,69,-0.027244,-0.049505,0.426356,-0.058515,-0.117705,1,1
2722,69,-0.163570,0.055889,-0.025966,-0.035179,0.376795,1,0
2755,69,0.045995,-0.127321,0.268803,-0.057534,-0.045812,0,1
2754,69,0.027570,-0.117967,0.335495,0.013519,-0.093159,0,1
2731,69,-0.230536,0.044247,-0.005818,-0.126550,0.444198,1,0
2753,69,0.064133,-0.104382,0.351201,-0.004421,-0.109189,0,1
2725,69,-0.141449,-0.065344,0.010231,-0.017429,0.374902,1,0
2721,69,-0.169948,-0.009604,-0.027811,-0.011456,0.375877,1,0
2735,69,-0.190852,0.019785,-0.020001,-0.033904,0.352298,1,0
2736,69,-0.152608,-0.016252,0.058203,0.006908,0.316644,1,0
2740,69,0.054258,-0.092858,0.375658,0.033117,-0.107732,0,1
2756,69,0.037645,-0.178667,0.398428,-0.027376,-0.094206,0,1
2743,69,-0.042133,-0.170154,0.459004,0.013961,-0.004922,0,1
2724,69,-0.081527,-0.042321,-0.054728,-0.074966,0.366140,1,0
2739,69,-0.174432,-0.018212,-0.005692,0.029762,0.445422,1,0
2750,69,0.027709,-0.110946,0.381842,0.017738,-0.062935,0,1
2758,69,0.109630,-0.094080,0.456494,-0.040674,-0.024108,0,1
2780,70,0.133702,-0.071819,0.319507,0.076328,0.033761,1,1
2773,70,0.014009,0.095471,-0.056761,0.047530,0.363926,1,0
2795,70,0.148475,-0.101644,0.349372,-0.001873,-0.024064,0,1
2786,70,0.121380,-0.031105,0.374912,0.029498,-0.066333,1,1
2781,70,0.103623,-0.042494,0.294677,0.086760,-0.035128,1,1
2761,70,0.022746,0.067697,0.011600,-0.017366,0.431801,1,0
2770,70,-0.027998,0.028099,-0.012396,0.015975,0.373454,1,0
2767,70,-0.001816,-0.031079,-0.064568,0.082362,0.370592,1,1
2764,70,-0.015487,-0.005822,-0.051661,0.044213,0.330127,1,1
2782,70,0.166325,-0.116610,0.284960,-0.005521,-0.043880,0,1
2760,70,0.037727,0.081519,-0.092945,0.017803,0.349150,1,0
2797,70,0.160870,-0.032672,0.317940,0.107331,-0.030843,0,1
2794,70,0.131417,0.014540,0.300303,0.008295,-0.088847,1,1
2774,70,0.041363,-0.005477,0.039214,-0.020649,0.325837,1,1
2796,70,0.138284,-0.027551,0.349523,0.029427,-0.055163,1,1
2790,70,0.154457,-0.029502,0.255683,0.162467,-0.035204,1,1
2799,70,0.129361,-0.027156,0.290065,0.092438,-0.008194,1,1
2775,70,-0.046273,-0.013997,-0.035405,0.025140,0.411283,1,0
2765,70,0.020073,-0.005003,-0.090547,-0.035933,0.286184,1,1
2792,70,0.134611,-0.043294,0.281160,0.007253,-0.104908,1,1
2779,70,-0.032475,-0.023965,-0.054916,0.005743,0.344634,1,0
2766,70,0.034065,0.070219,0.062606,0.110788,0.421554,1,1
2787,70,0.067966,-0.041390,0.354869,-0.030481,-0.070698,1,1
2788,70,0.019843,-0.059077,0.218403,0.035299,-0.053697,1,1
2762,70,-0.060045,-0.037367,-0.060564,0.076157,0.414386,1,0
2778,70,-0.055859,0.052108,-0.018666,0.018948,0.371615,1,0
2791,70,0.048102,-0.036404,0.308103,0.137886,-0.009064,1,1
2785,70,0.101012,-0.047816,0.360401,0.084734,-0.086263,1,1
2776,70,0.099242,-0.031678,0.011655,0.001169,0.386073,1,1
2769,70,0.007701,-0.010860,-0.054881,0.028013,0.300847,1,1
2789,70,0.131086,0.055467,0.325501,0.079064,-0.039447,1,1
2771,70,0.011769,-0.054508,0.009050,0.052381,0.425153,1,1
2777,70,0.131152,0.007440,-0.122659,0.072791,0.430003,1,1
2768,70,0.039770,0.082690,-0.043134,0.057847,0.282865,1,0
2763,70,-0.000443,0.009698,-0.104097,0.006652,0.399801,1,1
2784,70,0.211249,-0.076958,0.386743,0.005072,-0.051927,0,1
2798,70,0.092421,-0.069883,0.291777,0.076830,-0.029438,1,1
2772,70,0.024852,0.081999,0.069615,0.008554,0.388348,1,0
2783,70,0.153349,-0.043994,0.381941,0.041503,-0.069101,1,1
2793,70,0.161321,-0.029894,0.306818,0.118023,-0.068850,0,1
2811,71,0.101547,-0.045162,-0.054201,0.084003,0.347338,1,1
2812,71,0.088425,-0.015684,0.064014,0.091924,0.336305,1,1
2805,71,0.152301,-0.038604,-0.042455,0.045711,0.463599,1,1
2829,71,0.106428,0.030648,0.281419,-0.025551,-0.048552,1,1
2806,71,0.104126,0.080080,-0.017923,0.052085,0.299124,1,1
2832,71,0.073543,-0.020260,0.301767,0.032081,-0.040770,1,1
2826,71,0.024155,-0.063598,0.386313,0.062725,-0.064923,1,1
2819,71,0.079065,-0.042909,-0.032417,0.094241,0.422333,1,1
2834,71,0.031489,0.007858,0.265308,0.050971,-0.008671,1,1
2804,71,0.115798,-0.021303,0.005820,0.110518,0.394436,1,1
2828,71,0.016802,-0.044506,0.314418,0.108009,-0.091224,1,1
2822,71,0.081527,0.026212,0.313824,0.055010,-0.163708,1,1
2816,71,0.162367,-0.016266,-0.077440,0.041383,0.384305,1,1
2807,71,0.123247,-0.045005,-0.067277,-0.001747,0.387372,1,1
2824,71,0.046864,-0.057603,0.340032,0.068747,-0.164682,1,1
2836,71,0.105676,-0.021993,0.332339,0.078889,-0.123413,1,1
2825,71,0.169159,0.022312,0.314838,0.096580,-0.098764,1,1
2821,71,0.148934,0.000884,0.300700,0.061678,-0.164944,1,1
2837,71,0.217467,0.068152,0.324227,0.037830,-0.050115,0,1
2833,71,0.156376,0.006902,0.412015,0.098770,0.015564,1,1
2802,71,0.039498,0.047536,-0.102370,0.045425,0.359951,1,1
2810,71,0.111749,-0.039319,-0.065143,0.191089,0.368940,1,1
2813,71,0.040431,0.041631,-0.147647,0.009032,0.440873,1,1
2823,71,0.151913,-0.063885,0.319685,0.093185,-0.087525,1,1
2831,71,0.099524,-0.013344,0.297788,0.046152,-0.141234,1,1
2817,71,0.146840,-0.017837,-0.033692,-0.006467,0.432130,1,1
2830,71,0.123250,0.009083,0.311248,0.025846,0.007945,1,1
2818,71,0.016007,-0.047440,0.043502,0.130063,0.370489,1,1
2803,71,0.133431,0.028203,0.017462,0.144695,0.327793,1,1
2801,71,0.026418,0.041216,0.096705,0.062149,0.410824,1,1
2827,71,0.045683,-0.031109,0.227843,0.142915,-0.092256,1,1
2820,71,0.051516,-0.076014,0.191805,0.034794,-0.020332,1,1
2808,71,0.052651,0.077350,-0.069311,-0.016068,0.290121,1,1
2838,71,0.089950,-0.037292,0.425437,0.160088,-0.031407,1,1
2800,71,-0.016590,-0.049047,-0.088432,0.052882,0.333544,1,1
2835,71,0.079403,-0.041217,0.346455,0.054225,0.016119,1,1
2839,71,0.064471,0.048086,0.343254,0.033904,-0.121624,1,1
2809,71,0.112845,0.009251,-0.093642,0.032899,0.237451,1,1
2815,71,0.032967,0.012237,0.038937,-0.000694,0.437305,1,1
2814,71,0.098358,-0.076735,-0.077390,0.015840,0.313596,1,1
2848,72,0.247239,0.077354,-0.082738,0.059816,0.329942,1,0
2871,72,-0.173827,-0.038763,0.251818,-0.057329,-0.056315,0,1
2868,72,-0.078142,-0.022454,0.302262,0.012881,-0.112194,0,1
2840,72,0.130437,-0.085632,0.086649,0.182078,0.363123,1,0
2861,72,-0.077603,-0.039308,0.202538,-0.041252,-0.064485,0,1
2845,72,0.021740,-0.029857,-0.119910,0.029721,0.345319,1,1
2846,72,0.103034,-0.130298,0.039467,0.110610,0.311919,1,0
2844,72,0.088126,-0.030927,0.004743,-0.031791,0.327924,1,0
2851,72,0.123012,-0.013496,0.079573,0.103289,0.401655,1,0
2879,72,-0.067470,-0.041553,0.337245,-0.164849,0.005338,0,1
2847,72,0.199506,-0.014685,-0.007948,0.065751,0.397690,1,0
2873,72,-0.062037,-0.029126,0.207058,-0.004068,-0.065090,0,1
2867,72,-0.058757,-0.029543,0.308436,0.022580,-0.088780,0,1
2872,72,-0.174101,-0.013561,0.295165,0.026657,-0.113349,0,1
2863,72,-0.139895,0.060102,0.381924,-0.015244,-0.068072,0,1
2862,72,-0.031965,-0.011955,0.398107,-0.029324,-0.179387,1,1
2875,72,0.024241,-0.119514,0.381984,-0.008459,-0.003136,1,1
2842,72,0.070470,0.029751,-0.049946,0.078897,0.283530,1,1
2849,72,0.176631,-0.082385,0.056725,0.135326,0.354729,1,0
2858,72,0.157473,0.021456,-0.033780,-0.001796,0.406362,1,0
2853,72,0.027617,0.036650,0.078947,0.001750,0.384959,1,1
2876,72,-0.131101,-0.027981,0.349657,0.034329,-0.085914,0,1
2864,72,-0.079163,-0.003701,0.355808,0.000330,-0.028939,0,1
2878,72,-0.076692,0.023114,0.245994,0.005983,-0.090047,0,1
2874,72,-0.133248,0.056698,0.322861,0.083040,-0.066050,0,1
2860,72,-0.117851,-0.004493,0.321498,0.008748,-0.034607,0,1
2865,72,-0.096310,-0.002853,0.307678,0.007329,-0.035820,0,1
2859,72,0.121579,-0.021077,-0.017964,0.059651,0.355351,1,0
2843,72,0.152495,0.003724,0.001904,0.080441,0.350352,1,0
2856,72,0.178275,-0.042103,0.044454,0.042994,0.418607,1,0
2841,72,0.111606,0.028051,-0.011963,0.062178,0.400036,1,0
2850,72,0.134113,-0.035941,-0.035227,0.084320,0.336004,1,0
2869,72,-0.082992,0.001751,0.297902,-0.025340,-0.040023,0,1
2870,72,-0.108134,-0.025935,0.334123,0.015812,-0.113701,0,1
2866,72,-0.066204,-0.018450,0.271967,-0.033360,-0.090569,0,1
2852,72,0.150163,-0.004230,0.024723,0.051033,0.274360,1,0
2877,72,0.025957,-0.063756,0.340801,0.070704,-0.052197,1,1
2857,72,0.034183,-0.069068,-0.015697,0.085247,0.423266,1,1
2854,72,0.081743,-0.039709,-0.066866,0.011064,0.366772,1,0
2855,72,0.173535,-0.002993,-0.023072,0.041293,0.337865,1,0
2918,73,-0.282983,-0.021365,0.307607,-0.026967,-0.071722,0,1
2891,73,0.188711,-0.038881,-0.002448,0.154326,0.341073,1,0
2881,73,0.210425,-0.034181,0.056774,0.132542,0.229518,1,0
2909,73,-0.276245,-0.034246,0.296273,-0.146484,-0.048006,0,1
2902,73,-0.319661,0.018015,0.252165,-0.050208,-0.083479,0,1
2895,73,0.074535,0.064673,-0.070860,0.108919,0.346280,1,0
2892,73,0.226189,-0.091009,-0.061350,0.014434,0.367521,1,0
2882,73,0.220787,-0.063749,0.020407,0.141067,0.398718,1,0
2919,73,-0.156903,0.005571,0.232162,-0.090732,-0.103185,0,1
2883,73,0.280069,-0.120745,0.099316,-0.025014,0.310118,1,0
2906,73,-0.166200,-0.060662,0.316171,-0.056939,-0.120383,0,1
2893,73,0.205864,-0.037006,0.005926,0.035501,0.331110,1,0
2911,73,-0.246468,0.000056,0.387681,-0.017246,-0.135526,0,1
2907,73,-0.291170,-0.064306,0.265048,-0.094382,0.017137,0,1
2887,73,0.204559,-0.096083,-0.095205,0.063671,0.360769,1,0
2885,73,0.163643,-0.103094,-0.022873,0.101383,0.335248,1,0
2884,73,0.213768,-0.098585,0.017904,0.055107,0.341728,1,0
2896,73,0.185150,-0.092212,-0.061276,0.057270,0.390082,1,0
2901,73,-0.245182,0.015643,0.298065,-0.078938,-0.071800,0,1
2915,73,-0.203979,-0.087936,0.319858,-0.098338,-0.069489,0,1
2904,73,-0.258364,-0.002421,0.319111,-0.137437,-0.084937,0,1
2899,73,0.209444,-0.034854,0.018269,0.014440,0.351887,1,0
2889,73,0.168823,-0.021344,-0.015837,0.094244,0.313137,1,0
2898,73,0.111559,-0.037758,-0.000609,-0.008708,0.304885,1,0
2908,73,-0.170833,-0.026812,0.308971,-0.103637,-0.016150,0,1
2900,73,-0.229709,-0.023890,0.345209,-0.097439,-0.055552,0,1
2890,73,0.114316,-0.045536,0.007335,0.062377,0.348956,1,0
2912,73,-0.298157,0.019944,0.274415,-0.117775,-0.109579,0,1
2914,73,-0.192240,-0.032789,0.306393,-0.129718,-0.115652,0,1
2880,73,0.163475,0.010070,-0.010468,0.110845,0.282404,1,0
2916,73,-0.217124,0.019028,0.375677,-0.114808,-0.056433,0,1
2903,73,-0.242737,0.016454,0.322267,-0.081582,-0.053849,0,1
2917,73,-0.260980,0.041012,0.276964,-0.133071,-0.117421,0,1
2905,73,-0.151041,-0.033559,0.233481,-0.110015,-0.065862,0,1
2888,73,0.176296,-0.047096,-0.012895,0.138593,0.317854,1,0
2886,73,0.171069,0.021980,0.000319,0.020965,0.343471,1,0
2910,73,-0.267272,0.010038,0.449711,-0.233294,-0.082932,0,1
2897,73,0.241004,-0.064143,-0.068745,0.078046,0.418945,1,0
2913,73,-0.234479,-0.016580,0.349251,-0.012695,-0.050373,0,1
2894,73,0.094149,-0.078123,-0.069192,0.062474,0.302136,1,0
2955,74,-0.347122,-0.109207,0.321193,-0.117086,-0.103120,0,1
2927,74,0.210018,-0.083808,-0.074788,-0.005309,0.446726,1,0
2948,74,-0.356538,-0.098287,0.326161,-0.159543,-0.126656,0,1
2933,74,0.170983,-0.052721,-0.056252,0.057390,0.307699,1,0
2947,74,-0.345428,-0.071322,0.281305,-0.180990,-0.085388,0,1
2934,74,0.176925,-0.036464,0.004853,0.058522,0.342181,1,0
2953,74,-0.342718,-0.136222,0.264432,-0.086269,-0.094517,0,1
2931,74,0.218658,-0.105179,-0.046732,0.081548,0.367901,1,0
2941,74,-0.309916,-0.160232,0.180915,-0.154133,-0.123514,0,1
2956,74,-0.332766,-0.113728,0.310301,-0.249271,-0.047604,0,1
2958,74,-0.313575,-0.082697,0.354607,-0.100242,-0.109305,0,1
2939,74,0.241968,-0.115345,-0.049833,0.100749,0.361125,1,0
2922,74,0.228445,-0.090501,-0.149845,0.036712,0.281626,1,0
2930,74,0.121286,-0.039872,-0.063236,0.080820,0.295410,1,0
2951,74,-0.352853,-0.081224,0.392284,-0.132238,-0.130169,0,1
2924,74,0.146935,-0.115432,-0.051999,0.091635,0.285616,1,0
2942,74,-0.334958,-0.043033,0.266914,-0.153126,-0.117996,0,1
2923,74,0.188265,-0.049251,0.016916,0.045993,0.353014,1,0
2928,74,0.136850,-0.139565,-0.086203,0.134929,0.310009,1,0
2949,74,-0.325761,-0.142864,0.243110,-0.296654,-0.134180,0,1
2937,74,0.149224,-0.111776,-0.130812,0.075868,0.271285,1,0
2944,74,-0.323414,-0.080419,0.202322,-0.147331,0.004833,0,1
2929,74,0.255226,-0.126646,-0.116493,0.027637,0.381763,1,0
2954,74,-0.303275,-0.082178,0.277135,-0.203581,-0.038942,0,1
2921,74,0.192099,-0.118904,-0.033530,0.036641,0.280328,1,0
2943,74,-0.397460,-0.035806,0.339363,-0.205744,-0.014130,0,1
2950,74,-0.419074,-0.042138,0.318368,-0.229166,-0.133210,0,1
2935,74,0.224902,-0.180880,-0.080337,0.069937,0.322907,1,0
2936,74,0.186032,-0.173390,-0.071977,0.172001,0.343540,1,0
2938,74,0.190915,-0.091691,-0.000419,0.129008,0.388405,1,0
2940,74,-0.391565,-0.023997,0.292022,-0.175245,-0.010049,0,1
2932,74,0.095503,-0.128411,-0.075174,0.090075,0.367743,1,0
2952,74,-0.358527,-0.084126,0.354804,-0.198353,-0.062829,0,1
2957,74,-0.380553,-0.120176,0.380178,-0.126109,-0.106421,0,1
2925,74,0.108538,-0.103872,-0.108693,0.110468,0.280097,1,0
2945,74,-0.295187,-0.027467,0.349033,-0.199654,-0.068370,0,1
2926,74,0.163800,-0.094935,-0.096443,0.135063,0.415194,1,0
2946,74,-0.381971,-0.095976,0.297345,-0.081886,-0.096191,0,1
2920,74,0.205613,-0.085570,-0.019474,0.152313,0.365849,1,0
2959,74,-0.326088,-0.101709,0.161171,-0.160806,-0.075695,0,1
2995,75,-0.411076,-0.199230,0.252705,-0.155517,-0.088045,0,1
2965,75,0.242134,-0.162373,-0.032086,0.040806,0.278729,1,0
2984,75,-0.406667,-0.149804,0.212765,-0.287488,-0.082526,0,1
2983,75,-0.371577,-0.096650,0.251623,-0.282210,-0.089959,0,1
2970,75,0.248365,-0.192040,-0.093667,0.077841,0.271857,1,0
2962,75,0.099903,-0.195550,-0.113312,0.056674,0.309424,1,0
2985,75,-0.418799,-0.165971,0.214416,-0.348390,-0.118019,0,1
2967,75,0.172495,-0.237900,-0.015641,-0.070596,0.355459,1,0
2997,75,-0.290954,-0.146093,0.216183,-0.216171,-0.170358,0,1
2972,75,0.193007,-0.221029,-0.092262,0.016614,0.374828,1,0
2981,75,-0.434724,-0.190558,0.314562,-0.339978,-0.072060,0,1
2993,75,-0.475583,-0.161561,0.288445,-0.288213,-0.153059,0,1
2996,75,-0.410144,-0.178699,0.223004,-0.276585,-0.022708,0,1
2976,75,0.241639,-0.150110,-0.089751,0.035477,0.349467,1,0
2964,75,0.198542,-0.115809,-0.066434,0.031509,0.382587,1,0
2978,75,0.237132,-0.164534,-0.024712,0.095804,0.227260,1,0
2960,75,0.276312,-0.170719,-0.086917,0.117812,0.280798,1,0
2991,75,-0.324404,-0.190452,0.230286,-0.248205,-0.113854,0,1
2975,75,0.246795,-0.193256,-0.123353,0.128725,0.290528,1,0
2994,75,-0.340475,-0.306947,0.315698,-0.250302,-0.170844,0,1
2966,75,0.192807,-0.206704,-0.027757,0.031411,0.251319,1,0
2986,75,-0.339945,-0.280312,0.168629,-0.216234,-0.177305,0,1
2987,75,-0.415934,-0.204023,0.235032,-0.316299,-0.074102,0,1
2961,75,0.216123,-0.090785,-0.159596,0.005100,0.246164,1,0
2988,75,-0.422883,-0.191368,0.216441,-0.267090,-0.079234,0,1
2974,75,0.205459,-0.238141,-0.103965,-0.007959,0.394817,1,0
2989,75,-0.381173,-0.183885,0.270320,-0.222806,-0.132715,0,1
2963,75,0.187366,-0.198448,-0.055215,0.047295,0.333882,1,0
2990,75,-0.362047,-0.103708,0.224334,-0.244455,-0.027544,0,1
2969,75,0.169385,-0.174051,-0.012374,0.022595,0.369558,1,0
2982,75,-0.315665,-0.174324,0.185820,-0.225714,-0.094536,0,1
2979,75,0.246570,-0.165164,-0.048689,0.171456,0.327364,1,0
2998,75,-0.412680,-0.136118,0.331515,-0.258502,-0.089229,0,1
2977,75,0.267947,-0.213340,-0.055963,0.039784,0.308483,1,0
2980,75,-0.340030,-0.084191,0.185438,-0.230695,-0.004456,0,1
2968,75,0.247537,-0.182362,-0.059300,0.006822,0.373859,1,0
2973,75,0.201127,-0.312865,-0.065505,0.026436,0.326922,1,0
2971,75,0.225865,-0.167703,-0.019580,0.079938,0.375263,1,0
2992,75,-0.471270,-0.197813,0.230118,-0.259370,-0.080458,0,1
2999,75,-0.335615,-0.177337,0.143886,-0.216225,-0.117664,0,1
3023,76,-0.370691,-0.206220,0.320717,-0.338919,-0.169003,0,1
3007,76,0.194030,-0.187892,-0.023649,0.087968,0.223269,1,0
3009,76,0.234063,-0.238955,-0.044779,-0.006991,0.382719,1,0
3027,76,-0.404514,-0.264625,0.231032,-0.311039,-0.074035,0,1
3010,76,0.074994,-0.148130,-0.105814,0.069238,0.335657,1,0
3034,76,-0.425896,-0.225816,0.222695,-0.284884,-0.120247,0,1
3036,76,-0.387943,-0.370774,0.264563,-0.346826,-0.072895,0,1
3016,76,0.173419,-0.272094,-0.008326,0.093433,0.267692,1,0
3024,76,-0.522342,-0.257174,0.220038,-0.425464,-0.104722,0,1
3035,76,-0.387899,-0.175840,0.355239,-0.300878,-0.043581,0,1
3026,76,-0.381564,-0.258681,0.206789,-0.287023,-0.025515,0,1
3029,76,-0.495379,-0.216218,0.306680,-0.302905,-0.142433,0,1
3030,76,-0.357791,-0.207370,0.298356,-0.287625,-0.085484,0,1
3031,76,-0.442903,-0.270750,0.370728,-0.230179,-0.020658,0,1
3003,76,0.179941,-0.318767,-0.029634,-0.031334,0.310908,1,0
3001,76,0.181839,-0.287376,-0.025296,-0.015741,0.291274,1,0
3037,76,-0.382302,-0.290536,0.326243,-0.273845,-0.099168,0,1
3033,76,-0.316810,-0.249890,0.245193,-0.332353,-0.072817,0,1
3025,76,-0.529577,-0.259531,0.350449,-0.249031,-0.046160,0,1
3012,76,0.136208,-0.266201,-0.061668,-0.042792,0.331148,1,0
3004,76,0.124096,-0.216207,-0.084959,-0.030733,0.334455,1,0
3020,76,-0.411938,-0.140825,0.358261,-0.263548,-0.049466,0,1
3032,76,-0.369900,-0.258045,0.203707,-0.293930,-0.094201,0,1
3019,76,0.193275,-0.335090,-0.172488,0.070121,0.294334,1,0
3021,76,-0.385983,-0.311701,0.205360,-0.344637,-0.159198,0,1
3018,76,0.158021,-0.236504,-0.106193,0.039246,0.298657,1,0
3039,76,-0.446389,-0.294907,0.202086,-0.277849,-0.096003,0,1
3005,76,0.077051,-0.224476,-0.079411,-0.058422,0.345210,1,0
3011,76,0.218297,-0.255596,-0.003544,-0.019273,0.403434,1,0
3038,76,-0.335440,-0.307072,0.267002,-0.309096,-0.004158,0,1
3017,76,0.176023,-0.227585,0.032550,0.044771,0.297710,1,0
3028,76,-0.429965,-0.315086,0.291852,-0.327921,-0.062852,0,1
3000,76,0.267981,-0.264724,0.003987,-0.005370,0.276490,1,0
3014,76,0.247500,-0.178398,0.002394,0.071194,0.260048,1,0
3022,76,-0.473849,-0.303033,0.226208,-0.362634,-0.107444,0,1
3015,76,0.317559,-0.183416,-0.108172,0.088295,0.296631,1,0
3013,76,0.175542,-0.187182,-0.004427,-0.017366,0.380995,1,0
3006,76,0.161318,-0.162787,-0.082173,0.089103,0.323373,1,0
3002,76,0.145530,-0.362702,-0.115278,0.004993,0.385286,1,0
3008,76,0.165484,-0.299407,-0.067946,-0.021164,0.282013,1,0
3064,77,-0.410748,-0.343163,0.254994,-0.276564,-0.056356,0,1
3077,77,-0.402638,-0.300397,0.317816,-0.280857,-0.063482,0,1
3073,77,-0.521858,-0.424546,0.340947,-0.335860,-0.159158,0,1
3043,77,0.023041,-0.307667,-0.085468,-0.114223,0.347743,1,0
3051,77,-0.010801,-0.242606,-0.063500,-0.098139,0.305366,1,0
3048,77,0.048115,-0.244471,-0.025461,-0.060698,0.345170,1,0
3070,77,-0.460989,-0.350120,0.306452,-0.388845,-0.121176,0,1
3046,77,0.037066,-0.311509,-0.062066,-0.001572,0.232081,1,0
3065,77,-0.352583,-0.355779,0.248673,-0.252713,-0.123096,0,1
3071,77,-0.316443,-0.352577,0.272403,-0.304674,-0.136642,0,1
3040,77,0.067106,-0.289994,-0.080369,-0.097955,0.276697,1,0
3076,77,-0.313751,-0.292410,0.358510,-0.379149,-0.128727,0,1
3047,77,-0.004780,-0.194319,-0.170615,-0.094288,0.364838,1,0
3072,77,-0.392116,-0.382797,0.292429,-0.355952,-0.137624,0,1
3056,77,0.021357,-0.311148,-0.105487,-0.119055,0.304406,1,0
3057,77,0.017254,-0.374182,-0.124071,-0.132803,0.315096,1,0
3060,77,-0.444417,-0.363064,0.215470,-0.373090,-0.052342,0,1
3045,77,0.056069,-0.241280,-0.027533,-0.106834,0.304215,1,0
3061,77,-0.371186,-0.325761,0.297467,-0.421031,-0.142304,0,1
3050,77,-0.021932,-0.299815,-0.108400,-0.035565,0.266483,1,0
3049,77,-0.016599,-0.323209,-0.110632,-0.143678,0.319110,1,0
3074,77,-0.506307,-0.333892,0.272786,-0.343881,-0.112498,0,1
3042,77,0.051879,-0.317095,-0.037417,-0.136638,0.325425,1,0
3055,77,0.007967,-0.306439,-0.077971,-0.072733,0.414257,1,0
3054,77,0.066285,-0.324145,-0.084345,-0.112251,0.288041,1,0
3044,77,0.049896,-0.303883,-0.207264,-0.228253,0.288985,1,0
3078,77,-0.431050,-0.355574,0.233324,-0.331896,-0.089101,0,1
3079,77,-0.433379,-0.355435,0.273553,-0.341965,-0.131460,0,1
3069,77,-0.392561,-0.274107,0.279994,-0.483961,-0.068537,0,1
3041,77,0.081877,-0.228629,-0.064774,-0.103798,0.322781,1,0
3067,77,-0.412110,-0.395605,0.287511,-0.383831,-0.160563,0,1
3053,77,0.047713,-0.277351,-0.064174,-0.128425,0.298689,1,0
3075,77,-0.427562,-0.233952,0.260074,-0.347368,-0.174602,0,1
3066,77,-0.373679,-0.261473,0.148044,-0.290612,-0.125083,0,1
3058,77,0.123938,-0.342724,-0.071518,-0.018078,0.296200,1,0
3068,77,-0.463217,-0.385794,0.282307,-0.348887,-0.069141,0,1
3062,77,-0.384403,-0.388901,0.234446,-0.340252,-0.152572,0,1
3063,77,-0.337212,-0.353882,0.311338,-0.338794,-0.169274,0,1
3059,77,0.004425,-0.361476,0.008349,-0.194770,0.408473,1,0
3052,77,-0.043984,-0.424057,-0.100545,-0.232434,0.325606,1,0
3100,78,-0.440115,-0.459110,0.274047,-0.339824,-0.159251,0,1
3107,78,-0.335665,-0.515117,0.298039,-0.347062,-0.093556,0,1
3083,78,-0.041484,-0.391976,-0.165059,-0.110926,0.359454,1,0
3089,78,0.038465,-0.367655,-0.038349,-0.117090,0.322396,1,0
3113,78,-0.367463,-0.426390,0.242729,-0.372049,-0.144699,0,1
3119,78,-0.365083,-0.377997,0.227682,-0.353894,-0.097745,0,1
3114,78,-0.332261,-0.300764,0.222086,-0.388587,-0.164894,0,1
3091,78,-0.045618,-0.353145,-0.081489,-0.134745,0.241310,1,0
3109,78,-0.298068,-0.502889,0.170630,-0.406693,-0.125210,0,1
3101,78,-0.418520,-0.446344,0.166920,-0.465601,-0.144274,0,1
3096,78,-0.020504,-0.365413,-0.037707,-0.175897,0.359511,1,0
3082,78,-0.008435,-0.354546,-0.020605,-0.090501,0.314929,1,0
3085,78,-0.035205,-0.305394,-0.042621,-0.158007,0.266848,1,0
3087,78,-0.039195,-0.288742,-0.079119,-0.122312,0.348743,1,0
3110,78,-0.412778,-0.526338,0.256154,-0.295962,-0.044842,0,1
3104,78,-0.376853,-0.534801,0.266914,-0.423320,-0.152473,0,1
3112,78,-0.402614,-0.388569,0.273489,-0.424548,-0.091194,0,1
3108,78,-0.429098,-0.384572,0.152925,-0.374876,-0.057605,0,1
3102,78,-0.371128,-0.440813,0.254513,-0.349309,-0.139642,0,1
3105,78,-0.380359,-0.352761,0.342165,-0.450953,-0.139063,0,1
3117,78,-0.365344,-0.503020,0.285352,-0.388433,-0.169614,0,1
3084,78,-0.047616,-0.359711,-0.124396,-0.171294,0.304735,1,0
3086,78,-0.031386,-0.300155,-0.085602,-0.211519,0.317415,1,0
3116,78,-0.421763,-0.546161,0.307609,-0.387586,-0.092477,0,1
3081,78,0.012420,-0.327104,-0.038527,-0.137228,0.385820,1,0
3088,78,0.005176,-0.458528,-0.127903,-0.236422,0.248986,1,0
3095,78,0.031819,-0.361392,-0.031444,-0.159943,0.261268,1,0
3115,78,-0.364197,-0.337492,0.298039,-0.306822,-0.124857,0,1
3118,78,-0.471700,-0.399100,0.181643,-0.372953,-0.117590,0,1
3099,78,0.075960,-0.330405,-0.125049,-0.007911,0.337276,1,0
3093,78,-0.097469,-0.352839,-0.092953,-0.174861,0.298717,1,0
3098,78,-0.032685,-0.301093,-0.091380,-0.146808,0.301848,1,0
3103,78,-0.337197,-0.490211,0.300272,-0.385317,-0.121522,0,1
3090,78,-0.011296,-0.234701,-0.017572,-0.292437,0.184942,1,0
3106,78,-0.404217,-0.345581,0.183993,-0.414187,-0.164312,0,1
3092,78,0.120108,-0.323439,-0.080478,-0.174294,0.274500,1,0
3097,78,-0.044727,-0.348774,-0.117115,-0.095683,0.296347,1,0
3111,78,-0.401271,-0.512122,0.225582,-0.388821,-0.133355,0,1
3094,78,-0.109553,-0.400240,-0.061851,-0.146608,0.291354,1,0
3080,78,-0.007655,-0.286649,-0.076522,-0.085815,0.315462,1,0
3155,79,-0.196639,-0.445973,0.256770,-0.301234,-0.041881,1,1
3146,79,-0.325621,-0.475721,0.310458,-0.383052,-0.131054,0,1
3121,79,-0.107362,-0.322946,-0.184207,-0.328118,0.250214,1,0
3126,79,-0.113864,-0.311005,-0.118842,-0.224059,0.239987,1,0
3156,79,-0.272535,-0.446364,0.219219,-0.294078,-0.071159,0,1
3124,79,-0.072402,-0.353412,-0.180347,-0.181353,0.245526,1,0
3125,79,-0.119288,-0.428670,-0.048288,-0.292246,0.254751,1,1
3136,79,-0.072904,-0.329716,-0.114334,-0.260579,0.194738,1,0
3128,79,-0.010248,-0.341574,-0.138596,-0.171934,0.273122,1,0
3147,79,-0.202431,-0.481321,0.248990,-0.371256,-0.103474,0,1
3127,79,-0.150440,-0.381822,-0.067813,-0.152843,0.303031,1,1
3135,79,-0.154560,-0.336401,-0.027096,-0.231386,0.304325,1,1
3145,79,-0.180147,-0.348918,0.196635,-0.248844,-0.097305,1,1
3154,79,-0.284046,-0.397019,0.278241,-0.306086,-0.034079,0,1
3143,79,-0.179674,-0.463499,0.198028,-0.338324,-0.007701,1,1
3158,79,-0.234330,-0.380479,0.291977,-0.263063,-0.065579,1,1
3144,79,-0.232545,-0.427668,0.275441,-0.201877,-0.145270,0,1
3139,79,-0.078970,-0.353550,-0.157613,-0.231929,0.237818,1,0
3159,79,-0.240725,-0.351004,0.291416,-0.291484,-0.055817,1,1
3142,79,-0.290808,-0.456268,0.257090,-0.312451,-0.048879,0,1
3129,79,-0.067246,-0.273377,-0.067120,-0.151511,0.296646,1,0
3122,79,-0.057828,-0.345407,-0.111545,-0.076436,0.284177,1,0
3130,79,-0.093647,-0.388348,-0.116259,-0.155777,0.294964,1,0
3140,79,-0.244643,-0.490473,0.242891,-0.292750,-0.057674,0,1
3123,79,-0.148467,-0.405353,-0.114286,-0.211512,0.294497,1,1
3132,79,-0.226604,-0.387275,-0.078055,-0.252500,0.251708,1,1
3152,79,-0.277532,-0.425659,0.247005,-0.318322,-0.107710,0,1
3153,79,-0.100265,-0.508894,0.183657,-0.350008,-0.061905,0,1
3131,79,-0.068751,-0.407265,-0.084331,-0.190331,0.289179,1,0
3134,79,-0.079708,-0.287187,-0.111453,-0.213086,0.212002,1,0
3149,79,-0.200223,-0.494290,0.201698,-0.313179,-0.165837,0,1
3148,79,-0.231096,-0.322925,0.141918,-0.256805,-0.105537,1,1
3133,79,-0.146128,-0.321797,-0.176171,-0.227316,0.314118,1,1
3151,79,-0.275167,-0.429609,0.335275,-0.261149,-0.056960,0,1
3141,79,-0.293073,-0.464237,0.306007,-0.283915,-0.117683,0,1
3138,79,-0.008829,-0.316216,-0.091363,-0.153130,0.262338,1,0
3137,79,-0.066340,-0.301841,-0.079906,-0.131437,0.240749,1,0
3157,79,-0.235006,-0.467585,0.220760,-0.377207,-0.116466,0,1
3150,79,-0.311529,-0.416102,0.318195,-0.351530,-0.084075,0,1
3120,79,-0.039497,-0.260943,-0.204000,-0.263302,0.326085,1,0
3174,80,-0.184054,-0.398933,-0.101880,-0.276216,0.295200,1,1
3164,80,-0.175505,-0.383845,-0.162331,-0.354220,0.357517,1,1
3184,80,-0.143274,-0.487593,0.242188,-0.270163,-0.158273,1,1
3191,80,-0.084927,-0.500536,0.143748,-0.223263,-0.187254,0,1
3188,80,-0.052559,-0.290469,0.085456,-0.189125,-0.086799,0,1
3171,80,-0.298635,-0.305290,-0.183758,-0.306265,0.258419,1,0
3175,80,-0.253899,-0.403379,-0.051947,-0.366088,0.289349,1,1
3185,80,-0.293640,-0.410937,0.230699,-0.138811,-0.146223,1,1
3183,80,-0.234696,-0.392114,0.281227,-0.271666,-0.071666,1,1
3173,80,-0.270729,-0.331576,-0.072769,-0.292699,0.253342,1,0
3170,80,-0.317170,-0.392834,-0.117116,-0.218856,0.315077,1,0
3181,80,-0.216992,-0.379730,0.311871,-0.184340,-0.052923,1,1
3199,80,-0.216555,-0.254238,0.232722,-0.236885,-0.133675,1,1
3192,80,-0.164422,-0.373919,0.285854,-0.276682,-0.079557,1,1
3168,80,-0.153714,-0.377995,-0.089820,-0.243484,0.384937,1,1
3179,80,-0.220057,-0.402082,-0.101668,-0.273702,0.265278,1,1
3176,80,-0.223000,-0.451892,-0.195225,-0.314561,0.264132,1,1
3178,80,-0.149679,-0.412395,-0.072888,-0.258139,0.294664,1,1
3162,80,-0.150162,-0.430910,-0.077263,-0.354427,0.289562,1,1
3177,80,-0.214940,-0.378888,-0.061460,-0.266363,0.247584,1,1
3197,80,-0.167007,-0.351057,0.217420,-0.253623,-0.147297,1,1
3172,80,-0.221153,-0.385062,-0.089479,-0.232938,0.252884,1,1
3186,80,-0.252404,-0.366514,0.230673,-0.203842,-0.128389,1,1
3180,80,-0.147747,-0.337702,0.209840,-0.262499,-0.167017,1,1
3187,80,-0.145176,-0.454295,0.207014,-0.244893,-0.115748,1,1
3161,80,-0.213599,-0.297100,-0.093612,-0.280010,0.336741,1,1
3169,80,-0.274757,-0.510564,-0.157310,-0.242459,0.273440,1,0
3182,80,-0.169098,-0.409569,0.187662,-0.188003,-0.102798,1,1
3194,80,-0.156540,-0.412462,0.248802,-0.243234,-0.091364,1,1
3196,80,-0.116940,-0.373611,0.249828,-0.224900,-0.152286,1,1
3190,80,-0.011396,-0.410902,0.211628,-0.233163,-0.172985,0,1
3167,80,-0.334348,-0.322583,-0.281613,-0.330940,0.231968,1,0
3189,80,-0.135421,-0.324018,0.192951,-0.251757,-0.074116,1,1
3163,80,-0.221731,-0.373745,-0.156405,-0.279388,0.209827,1,1
3166,80,-0.265694,-0.441088,-0.172487,-0.291942,0.279427,1,1
3160,80,-0.209698,-0.390553,-0.116549,-0.422129,0.243808,1,1
3198,80,-0.139308,-0.459409,0.098930,-0.279335,-0.124216,1,1
3195,80,-0.120331,-0.347583,0.233876,-0.363545,-0.156019,1,1
3165,80,-0.256844,-0.447560,-0.139118,-0.245879,0.279228,1,1
3193,80,-0.166753,-0.366025,0.283267,-0.178249,-0.124094,1,1
3234,81,-0.012688,-0.453555,0.283089,-0.138224,-0.153168,0,1
3224,81,-0.161847,-0.392310,0.186708,-0.298505,-0.087043,0,1
3227,81,-0.072837,-0.432445,0.245201,-0.227853,-0.184491,0,1
3200,81,-0.266128,-0.361605,-0.094190,-0.283121,0.191589,1,0
3226,81,-0.051303,-0.350708,0.286609,-0.197867,-0.098712,0,1
3217,81,-0.474584,-0.416700,-0.234762,-0.341211,0.255601,1,0
3205,81,-0.421258,-0.403081,-0.123357,-0.319580,0.335599,1,0
3215,81,-0.457333,-0.207758,-0.162888,-0.274919,0.181841,1,0
3209,81,-0.282140,-0.420527,-0.053974,-0.453453,0.230029,1,0
3237,81,0.023897,-0.456475,0.211720,-0.210050,-0.154114,0,1
3212,81,-0.346240,-0.357005,-0.066207,-0.306205,0.229272,1,0
3236,81,0.009436,-0.367815,0.283798,-0.125056,-0.124506,0,1
3202,81,-0.404423,-0.414261,-0.106520,-0.388758,0.239767,1,0
3221,81,-0.045438,-0.377501,0.186373,-0.170154,-0.187992,0,1
3233,81,-0.017079,-0.426524,0.207316,-0.191770,-0.006960,0,1
3223,81,-0.069023,-0.451595,0.297169,-0.131364,-0.138860,0,1
3229,81,-0.073836,-0.426680,0.276179,-0.214965,-0.131167,0,1
3235,81,-0.083539,-0.388463,0.259719,-0.238662,-0.274499,0,1
3238,81,-0.109930,-0.362347,0.358904,-0.170418,-0.118319,0,1
3207,81,-0.383310,-0.375725,-0.152935,-0.389534,0.217407,1,0
3231,81,-0.039468,-0.403876,0.268221,-0.071548,-0.084415,0,1
3230,81,-0.015839,-0.442661,0.198933,-0.230955,-0.110922,0,1
3213,81,-0.358222,-0.321166,-0.151246,-0.358858,0.271593,1,0
3214,81,-0.309956,-0.345611,-0.132251,-0.332515,0.210196,1,0
3204,81,-0.387931,-0.469022,-0.076131,-0.315209,0.233266,1,0
3216,81,-0.362515,-0.399615,-0.117258,-0.306148,0.271353,1,0
3211,81,-0.353033,-0.347335,-0.109978,-0.352852,0.185927,1,0
3228,81,0.144128,-0.307731,0.199746,-0.188121,-0.145717,0,1
3225,81,-0.055814,-0.423968,0.251760,-0.099525,-0.043076,0,1
3210,81,-0.399348,-0.481448,-0.206908,-0.394188,0.324067,1,0
3201,81,-0.377503,-0.411797,-0.150009,-0.355068,0.201133,1,0
3222,81,-0.024574,-0.366511,0.293758,-0.237452,-0.113990,0,1
3239,81,-0.056140,-0.417250,0.337653,-0.140391,-0.094701,0,1
3220,81,-0.021833,-0.398265,0.294754,-0.181981,-0.027291,0,1
3203,81,-0.364728,-0.414466,-0.119816,-0.312322,0.230001,1,0
3208,81,-0.423935,-0.383764,-0.092904,-0.344734,0.259080,1,0
3206,81,-0.444246,-0.394955,-0.089557,-0.355509,0.310868,1,0
3218,81,-0.414556,-0.222777,-0.066031,-0.359477,0.275735,1,0
3232,81,-0.133373,-0.406516,0.255601,-0.250664,-0.096375,0,1
3219,81,-0.401069,-0.432048,-0.069319,-0.294974,0.289178,1,0
3274,82,-0.002587,-0.265412,0.309008,-0.060049,-0.167062,0,1
3243,82,-0.282596,-0.355853,-0.161059,-0.386558,0.319303,1,0
3256,82,-0.326370,-0.351477,-0.096169,-0.382622,0.261419,1,0
3241,82,-0.370392,-0.435469,-0.137103,-0.317849,0.223806,1,0
3242,82,-0.423580,-0.332053,-0.110269,-0.371617,0.290966,1,0
3277,82,-0.030064,-0.255296,0.385704,-0.162479,-0.103171,0,1
3244,82,-0.369217,-0.433577,-0.176971,-0.278749,0.381031,1,0
3267,82,0.139821,-0.209850,0.228148,-0.068984,-0.136031,0,1
3264,82,0.131805,-0.390499,0.199881,-0.062695,-0.113135,0,1
3251,82,-0.286039,-0.411368,-0.159667,-0.401149,0.228506,1,0
3254,82,-0.431688,-0.279235,-0.209649,-0.382512,0.313875,1,0
3240,82,-0.404492,-0.293653,-0.122524,-0.326254,0.217309,1,0
3250,82,-0.372911,-0.414273,-0.115120,-0.293406,0.307993,1,0
3258,82,-0.386631,-0.314771,-0.205418,-0.261331,0.363268,1,0
3246,82,-0.394282,-0.397372,-0.132397,-0.383636,0.288755,1,0
3272,82,0.100611,-0.331412,0.194495,-0.136922,-0.163499,0,1
3265,82,0.005687,-0.291685,0.288017,-0.086682,-0.117157,0,1
3261,82,0.111054,-0.325294,0.226572,-0.028251,-0.148970,0,1
3278,82,0.107534,-0.255321,0.211363,-0.049031,-0.097687,0,1
3279,82,0.071137,-0.414164,0.343015,-0.102628,-0.129346,0,1
3257,82,-0.385852,-0.406752,-0.157829,-0.340194,0.175805,1,0
3273,82,0.017786,-0.287801,0.221823,-0.085094,-0.183986,0,1
3271,82,0.068614,-0.383915,0.221676,-0.087513,-0.244367,0,1
3252,82,-0.409247,-0.391336,-0.090693,-0.380334,0.267494,1,0
3276,82,0.131918,-0.265842,0.208429,-0.094963,-0.185638,0,1
3247,82,-0.420269,-0.384665,-0.083280,-0.363030,0.307037,1,0
3260,82,-0.034119,-0.440503,0.234399,-0.126486,-0.044255,0,1
3268,82,0.067675,-0.340019,0.245534,-0.085698,-0.140748,0,1
3262,82,0.114007,-0.336534,0.205316,-0.037252,-0.063863,0,1
3248,82,-0.425948,-0.421835,-0.188651,-0.309858,0.260891,1,0
3249,82,-0.413500,-0.340062,-0.195362,-0.401284,0.242349,1,0
3253,82,-0.380936,-0.358252,-0.112900,-0.280623,0.304664,1,0
3259,82,-0.472274,-0.313084,-0.061915,-0.264745,0.207199,1,0
3266,82,0.129236,-0.372710,0.220855,-0.001277,-0.106112,0,1
3275,82,0.068827,-0.341858,0.347048,-0.164703,-0.088425,0,1
3270,82,0.081068,-0.300431,0.227647,-0.121805,-0.110243,0,1
3245,82,-0.325802,-0.351058,-0.225402,-0.396778,0.285525,1,0
3263,82,0.039807,-0.286602,0.259692,-0.106128,-0.182384,0,1
3269,82,0.113198,-0.313149,0.303527,-0.130430,-0.162986,0,1
3255,82,-0.329454,-0.319974,-0.152157,-0.391294,0.252089,1,0
3291,83,-0.334116,-0.217954,-0.131755,-0.316759,0.174670,1,0
3286,83,-0.435137,-0.373528,-0.060530,-0.317344,0.312443,1,0
3318,83,0.129589,-0.233762,0.271614,-0.032857,-0.111012,0,1
3299,83,-0.360901,-0.392008,-0.162541,-0.376023,0.261218,1,0
3287,83,-0.414333,-0.338335,-0.201548,-0.281427,0.245794,1,0
3313,83,0.190489,-0.257898,0.283417,-0.141428,-0.141599,0,1
3314,83,0.110953,-0.359189,0.167377,-0.046475,-0.165650,0,1
3305,83,0.157488,-0.228573,0.193691,0.005912,-0.085577,0,1
3296,83,-0.385377,-0.423560,-0.156552,-0.375560,0.272441,1,0
3315,83,0.029295,-0.227511,0.229477,-0.135233,-0.087042,0,1
3293,83,-0.387048,-0.361853,-0.101659,-0.264338,0.294089,1,0
3309,83,0.149600,-0.259296,0.242899,-0.077003,-0.140310,0,1
3308,83,0.174703,-0.270193,0.142054,0.078041,-0.199185,0,1
3298,83,-0.465721,-0.240886,-0.168620,-0.339515,0.329864,1,0
3306,83,0.147709,-0.206481,0.235682,-0.039034,-0.132569,0,1
3312,83,0.262964,-0.228635,0.217129,-0.125700,-0.122587,0,1
3310,83,0.151119,-0.310613,0.292072,-0.075335,-0.187508,0,1
3316,83,0.181216,-0.308324,0.377849,-0.033896,-0.147932,0,1
3280,83,-0.401762,-0.285867,-0.157857,-0.360462,0.188687,1,0
3282,83,-0.388627,-0.360092,-0.167633,-0.319782,0.325112,1,0
3307,83,0.101346,-0.227205,0.137401,-0.073174,-0.160382,0,1
3317,83,0.223618,-0.266700,0.256982,-0.021822,-0.048031,0,1
3304,83,0.141107,-0.269938,0.152545,-0.069090,-0.022772,0,1
3302,83,0.093449,-0.317043,0.137403,-0.040373,-0.099611,0,1
3289,83,-0.360995,-0.330530,-0.061077,-0.310522,0.147970,1,0
3284,83,-0.437332,-0.336563,-0.134234,-0.354753,0.154113,1,0
3285,83,-0.391595,-0.316338,-0.088943,-0.250995,0.319478,1,0
3297,83,-0.423365,-0.375243,-0.169847,-0.333847,0.239821,1,0
3319,83,0.157083,-0.335417,0.271202,-0.121499,-0.158083,0,1
3303,83,0.237405,-0.237364,0.249712,-0.007312,-0.076660,0,1
3295,83,-0.428674,-0.313440,-0.206906,-0.255784,0.263018,1,0
3301,83,0.150025,-0.186360,0.112889,-0.020923,-0.070129,0,1
3288,83,-0.408087,-0.406949,-0.163200,-0.375682,0.261869,1,0
3283,83,-0.388567,-0.453553,-0.121600,-0.391037,0.149338,1,0
3294,83,-0.428593,-0.341568,-0.134844,-0.336777,0.283149,1,0
3292,83,-0.369652,-0.334318,-0.167590,-0.338202,0.217425,1,0
3300,83,0.237045,-0.281512,0.225750,-0.050925,-0.138798,0,1
3281,83,-0.406623,-0.339971,-0.171708,-0.295270,0.225301,1,0
3290,83,-0.363207,-0.391653,-0.196698,-0.417696,0.197731,1,0
3311,83,0.155470,-0.317856,0.199998,-0.096147,-0.121772,0,1
3341,84,0.182060,-0.238962,0.154098,0.046141,-0.107685,0,1
3338,84,-0.409924,-0.267054,-0.184260,-0.280202,0.267448,1,0
3342,84,0.086131,-0.227276,0.317657,0.011775,-0.170206,0,1
3321,84,-0.403026,-0.245809,-0.139859,-0.349028,0.276425,1,0
3330,84,-0.448625,-0.297157,-0.174895,-0.292077,0.251955,1,0
3339,84,-0.284496,-0.328449,-0.255840,-0.259715,0.298253,1,0
3322,84,-0.375113,-0.224921,-0.135806,-0.259469,0.260302,1,0
3331,84,-0.466829,-0.355747,-0.136646,-0.330724,0.250151,1,0
3336,84,-0.317147,-0.318710,-0.126707,-0.414272,0.322463,1,0
3344,84,0.082635,-0.336637,0.309119,0.065354,-0.155902,0,1
3323,84,-0.379843,-0.359628,-0.114566,-0.342418,0.279194,1,0
3324,84,-0.245184,-0.226207,-0.073609,-0.477148,0.157797,1,0
3326,84,-0.369318,-0.241516,-0.191056,-0.218677,0.111514,1,0
3329,84,-0.396505,-0.281356,-0.161892,-0.205497,0.212788,1,0
3357,84,0.089513,-0.274902,0.230666,-0.038160,-0.287612,0,1
3351,84,0.076113,-0.237822,0.195232,-0.066364,-0.124309,0,1
3333,84,-0.357701,-0.234005,-0.117173,-0.304864,0.218484,1,0
3352,84,0.088743,-0.221530,0.246728,-0.028817,-0.101772,0,1
3325,84,-0.318338,-0.293846,-0.059667,-0.291290,0.213431,1,0
3350,84,0.142898,-0.242162,0.182217,0.003693,-0.139122,0,1
3343,84,0.137552,-0.324785,0.178089,-0.008450,-0.150664,0,1
3327,84,-0.369422,-0.243731,-0.167922,-0.361506,0.250011,1,0
3335,84,-0.377430,-0.420794,-0.157358,-0.261283,0.284278,1,0
3346,84,0.166004,-0.155414,0.179922,-0.012432,-0.090231,0,1
3337,84,-0.401207,-0.305312,-0.218169,-0.276675,0.201161,1,0
3328,84,-0.439524,-0.399507,-0.143254,-0.258963,0.287393,1,0
3353,84,0.060534,-0.211125,0.247925,0.038972,-0.152584,0,1
3332,84,-0.373054,-0.356120,-0.177110,-0.377929,0.254799,1,0
3345,84,0.087393,-0.340858,0.218758,0.028873,-0.163145,0,1
3340,84,0.135452,-0.178682,0.283989,-0.076382,-0.137677,0,1
3334,84,-0.396544,-0.237250,-0.111783,-0.312208,0.180792,1,0
3359,84,0.090246,-0.190628,0.191399,0.039963,-0.135744,0,1
3358,84,0.187223,-0.254628,0.173538,0.011760,-0.180510,0,1
3354,84,0.048649,-0.243829,0.229489,-0.031252,-0.089893,0,1
3356,84,0.018512,-0.215797,0.233653,-0.014540,-0.161356,0,1
3355,84,0.061491,-0.197188,0.187070,-0.041992,-0.119673,0,1
3320,84,-0.345714,-0.296064,-0.242822,-0.394092,0.242312,1,0
3347,84,0.127345,-0.164142,0.246006,0.086317,-0.128174,0,1
3349,84,0.135878,-0.187435,0.176986,0.013658,-0.235419,0,1
3348,84,0.143166,-0.182145,0.141256,-0.121632,-0.176758,0,1
3380,85,-0.124397,-0.149729,0.219966,-0.140982,-0.142109,0,1
3389,85,-0.063375,-0.171142,0.163883,-0.065154,-0.253219,0,1
3385,85,-0.053114,-0.195659,0.222511,-0.085843,-0.123188,0,1
3361,85,-0.309514,-0.284149,-0.133896,-0.243137,0.232736,1,0
3364,85,-0.275449,-0.293106,-0.127939,-0.212596,0.247764,1,0
3368,85,-0.161518,-0.264780,-0.209804,-0.210649,0.242330,1,1
3371,85,-0.218311,-0.262624,-0.159146,-0.280843,0.131996,1,0
3388,85,0.011113,-0.211601,0.120183,-0.098342,-0.271335,0,1
3373,85,-0.301354,-0.185728,-0.187664,-0.290731,0.164795,1,0
3369,85,-0.316404,-0.225405,-0.182110,-0.317910,0.227870,1,0
3399,85,-0.112501,-0.233084,0.209908,-0.007901,-0.230226,0,1
3395,85,-0.104789,-0.270207,0.200243,-0.044922,-0.144754,0,1
3394,85,0.007770,-0.177858,0.200085,-0.156284,-0.143181,0,1
3397,85,-0.065304,-0.203090,0.217924,-0.036676,-0.061131,0,1
3383,85,-0.045800,-0.219914,0.179984,-0.129788,-0.149262,0,1
3376,85,-0.315145,-0.252384,-0.183786,-0.265906,0.231154,1,0
3387,85,-0.110532,-0.169920,0.286311,-0.074995,-0.233240,0,1
3384,85,-0.059243,-0.274800,0.222318,-0.066212,-0.165369,0,1
3381,85,-0.080605,-0.184637,0.277834,-0.136918,-0.150629,0,1
3363,85,-0.213584,-0.142512,-0.172169,-0.139234,0.158071,1,0
3382,85,-0.040119,-0.234499,0.222425,-0.147076,-0.231865,0,1
3379,85,-0.319899,-0.282231,-0.211938,-0.275743,0.220479,1,0
3390,85,-0.051007,-0.195573,0.213805,-0.114435,-0.128904,0,1
3386,85,-0.137541,-0.200452,0.231507,-0.236492,-0.163847,1,1
3392,85,-0.020193,-0.196341,0.222517,-0.091519,-0.268640,0,1
3372,85,-0.257624,-0.239450,-0.157121,-0.221277,0.190390,1,0
3391,85,-0.051275,-0.192711,0.222254,-0.037210,-0.150464,0,1
3374,85,-0.205819,-0.317775,-0.085144,-0.226671,0.217543,1,0
3367,85,-0.173209,-0.297324,-0.099808,-0.225311,0.228105,1,1
3370,85,-0.196540,-0.314995,-0.206302,-0.245860,0.236821,1,0
3365,85,-0.176178,-0.321538,-0.134778,-0.193791,0.229569,1,0
3398,85,-0.007877,-0.201942,0.182203,-0.031406,-0.207696,0,1
3375,85,-0.250177,-0.231981,-0.133347,-0.254926,0.198744,1,0
3377,85,-0.250223,-0.235673,-0.113852,-0.240362,0.162567,1,0
3396,85,-0.056580,-0.178030,0.232575,-0.123463,-0.135955,0,1
3366,85,-0.284979,-0.311922,-0.172920,-0.172888,0.318712,1,0
3393,85,-0.113791,-0.225305,0.177176,-0.086094,-0.144055,0,1
3378,85,-0.294488,-0.328132,-0.169501,-0.199873,0.193359,1,0
3362,85,-0.245420,-0.268667,-0.294353,-0.248740,0.198697,1,0
3360,85,-0.257196,-0.280112,-0.184373,-0.244575,0.186261,1,0
3412,86,-0.157844,-0.220786,-0.134360,-0.117681,0.196846,1,1
3434,86,-0.130200,-0.085467,0.203322,-0.123062,-0.197104,1,1
3426,86,-0.282554,-0.264668,0.176419,-0.227235,-0.153941,0,1
3411,86,-0.002610,-0.199571,-0.146219,-0.127890,0.165568,1,0
3435,86,-0.197110,-0.250151,0.226432,-0.172323,-0.248998,1,1
3423,86,-0.297585,-0.223033,0.252318,-0.128714,-0.169850,0,1
3408,86,-0.067508,-0.189989,-0.165900,-0.130605,0.082434,1,0
3416,86,-0.166780,-0.193594,-0.221850,-0.085454,0.170848,1,1
3431,86,-0.227550,-0.147862,0.234116,-0.212389,-0.214139,0,1
3428,86,-0.202879,-0.264285,0.228243,-0.277548,-0.184222,1,1
3410,86,-0.074369,-0.256618,-0.165064,-0.202497,0.204059,1,1
3417,86,-0.101686,-0.214357,-0.172138,-0.010249,0.236057,1,1
3415,86,-0.068023,-0.187282,-0.118173,-0.093808,0.190475,1,0
3437,86,-0.164772,-0.224326,0.134538,-0.270528,-0.066451,1,1
3422,86,-0.221596,-0.220511,0.162053,-0.180126,-0.107612,1,1
3427,86,-0.206099,-0.229929,0.154585,-0.229256,-0.150954,1,1
3414,86,-0.064361,-0.264140,-0.158897,-0.171794,0.187116,1,0
3438,86,-0.199923,-0.258966,0.277002,-0.213912,-0.199196,1,1
3401,86,-0.148065,-0.328574,-0.187688,-0.109397,0.107279,1,1
3406,86,-0.131702,-0.197127,-0.222903,-0.205722,0.213115,1,1
3429,86,-0.362087,-0.175584,0.147452,-0.247710,-0.084592,0,1
3404,86,-0.066370,-0.329624,-0.196104,-0.087574,0.188590,1,0
3418,86,-0.067722,-0.262559,-0.126706,-0.187221,0.259026,1,0
3407,86,-0.147104,-0.287672,-0.206240,-0.168882,0.282458,1,1
3402,86,-0.087401,-0.204526,-0.103528,-0.152316,0.276364,1,1
3419,86,-0.166704,-0.267934,-0.139275,-0.113807,0.288843,1,1
3425,86,-0.154725,-0.222004,0.186388,-0.254340,-0.127338,1,1
3424,86,-0.226122,-0.208283,0.257971,-0.252805,-0.158578,1,1
3430,86,-0.159925,-0.193842,0.200044,-0.184370,-0.133846,1,1
3400,86,-0.124827,-0.284296,-0.237470,-0.175024,0.152695,1,1
3439,86,-0.116560,-0.158776,0.185508,-0.172464,-0.166964,1,1
3405,86,0.000947,-0.177414,-0.147817,-0.160696,0.173166,1,0
3409,86,-0.028037,-0.259090,-0.155552,-0.130131,0.277844,1,0
3436,86,-0.210932,-0.220053,0.098908,-0.191900,-0.053141,1,1
3432,86,-0.249484,-0.257705,0.117575,-0.163546,-0.175497,0,1
3421,86,-0.228809,-0.247303,0.137055,-0.162960,-0.288361,1,1
3433,86,-0.174310,-0.248636,0.155195,-0.246549,-0.158488,1,1
3403,86,-0.095964,-0.108246,-0.206904,-0.034115,0.232461,1,0
3420,86,-0.326311,-0.188502,0.263695,-0.227434,-0.150768,0,1
3413,86,-0.085515,-0.071705,-0.120910,-0.123400,0.220272,1,0
3475,87,-0.269974,-0.253527,0.197744,-0.294909,-0.045969,0,1
3470,87,-0.262272,-0.269746,0.136247,-0.281862,-0.138839,0,1
3471,87,-0.279087,-0.256175,0.235950,-0.214930,-0.128839,0,1
3468,87,-0.354943,-0.241231,0.117881,-0.259156,-0.203776,0,1
3446,87,-0.003531,-0.293981,-0.163394,-0.022626,0.247822,1,0
3466,87,-0.354131,-0.238683,0.118797,-0.137477,-0.184116,0,1
3467,87,-0.286737,-0.277746,0.239582,-0.294268,-0.254978,0,1
3452,87,0.122501,-0.199514,-0.165089,-0.048777,0.214636,1,0
3465,87,-0.289061,-0.243021,0.200909,-0.242881,-0.089005,0,1
3448,87,0.018958,-0.194449,-0.220583,-0.049538,0.160479,1,0
3473,87,-0.243008,-0.262540,0.134704,-0.289096,-0.233083,0,1
3453,87,0.047382,-0.228905,-0.163027,-0.063633,0.189311,1,0
3460,87,-0.267077,-0.229218,0.237776,-0.222536,-0.154458,0,1
3463,87,-0.331834,-0.239958,0.239927,-0.261030,-0.201875,0,1
3458,87,-0.011759,-0.221126,-0.200233,-0.082579,0.194267,1,0
3462,87,-0.303685,-0.256246,0.226755,-0.276387,-0.193296,0,1
3443,87,0.101435,-0.388534,-0.130430,-0.190023,0.168323,1,0
3479,87,-0.292357,-0.294436,0.167505,-0.199038,-0.120397,0,1
3455,87,0.059640,-0.201292,-0.216882,-0.123654,0.237949,1,0
3445,87,0.020543,-0.236416,-0.142807,-0.076160,0.260653,1,0
3447,87,-0.014499,-0.171187,-0.064211,-0.007734,0.189236,1,0
3464,87,-0.249432,-0.254911,0.137681,-0.233841,-0.136453,0,1
3454,87,-0.045798,-0.212642,-0.141459,-0.057414,0.227172,1,0
3472,87,-0.348855,-0.157268,0.284886,-0.345808,-0.111646,0,1
3444,87,0.033459,-0.255879,-0.226073,-0.070325,0.156337,1,0
3476,87,-0.343546,-0.287049,0.250744,-0.156188,-0.086616,0,1
3474,87,-0.227838,-0.286675,0.283852,-0.325158,-0.085599,0,1
3451,87,0.102600,-0.233929,-0.183584,-0.070663,0.220040,1,0
3440,87,0.031816,-0.243211,-0.209376,-0.016124,0.193103,1,0
3441,87,-0.056350,-0.102990,-0.196708,-0.083124,0.202908,1,0
3442,87,-0.012737,-0.343194,-0.209798,-0.031524,0.120557,1,0
3478,87,-0.350418,-0.239956,0.152944,-0.215665,-0.210591,0,1
3461,87,-0.321349,-0.337553,0.189147,-0.216694,-0.091742,0,1
3456,87,0.005968,-0.239242,-0.150454,-0.041447,0.295267,1,0
3449,87,-0.018603,-0.221422,-0.176584,-0.160849,0.164600,1,0
3469,87,-0.194964,-0.220245,0.164855,-0.340309,-0.163585,0,1
3450,87,-0.013410,-0.279299,-0.168897,-0.066597,0.152882,1,0
3457,87,-0.031160,-0.238478,-0.116453,-0.116520,0.116745,1,0
3477,87,-0.398544,-0.325325,0.187133,-0.252140,-0.128304,0,1
3459,87,0.034843,-0.247443,-0.134450,-0.042432,0.145501,1,0
3483,88,0.191161,-0.280761,-0.204335,-0.072041,0.245898,1,0
3485,88,0.078450,-0.205190,-0.121267,-0.051808,0.118226,1,0
3505,88,-0.313198,-0.280704,0.195783,-0.281730,-0.116428,0,1
3508,88,-0.398209,-0.408625,0.158420,-0.390290,-0.168065,0,1
3502,88,-0.331382,-0.300843,0.211669,-0.268468,-0.140751,0,1
3496,88,0.162212,-0.289344,-0.156426,0.059354,0.196300,1,0
3489,88,0.149816,-0.268237,-0.247376,-0.050466,0.172159,1,0
3487,88,0.126307,-0.223180,-0.195344,-0.049505,0.210036,1,0
3498,88,0.070600,-0.352321,-0.134999,-0.118509,0.195677,1,0
3491,88,0.126858,-0.315789,-0.122384,-0.076586,0.153495,1,0
3513,88,-0.397961,-0.281018,0.236766,-0.423551,-0.133956,0,1
3486,88,0.128235,-0.197926,-0.164429,-0.037498,0.221384,1,0
3488,88,0.147769,-0.189765,-0.149870,0.025295,0.249056,1,0
3494,88,0.103516,-0.270813,-0.164365,0.016773,0.157810,1,0
3480,88,0.090698,-0.268016,-0.120871,-0.047239,0.264649,1,0
3518,88,-0.250841,-0.217240,0.190432,-0.324804,-0.161486,0,1
3517,88,-0.333308,-0.299320,0.209776,-0.269563,-0.157897,0,1
3516,88,-0.334107,-0.356161,0.192025,-0.307388,-0.162095,0,1
3504,88,-0.354692,-0.319218,0.268522,-0.345463,-0.233273,0,1
3514,88,-0.419588,-0.337901,0.171411,-0.343435,-0.139050,0,1
3503,88,-0.365848,-0.273997,0.201260,-0.305431,-0.242730,0,1
3495,88,0.085203,-0.242400,-0.197166,0.042600,0.236239,1,0
3507,88,-0.403953,-0.326603,0.250844,-0.314603,-0.184921,0,1
3490,88,0.148609,-0.212970,-0.103222,-0.012897,0.283545,1,0
3499,88,0.149524,-0.245032,-0.139731,0.031796,0.163965,1,0
3512,88,-0.357319,-0.335143,0.083975,-0.347011,-0.216839,0,1
3482,88,0.146716,-0.318282,-0.225567,-0.039257,0.272130,1,0
3509,88,-0.283529,-0.339886,0.132533,-0.305585,-0.233033,0,1
3510,88,-0.385229,-0.338351,0.135608,-0.340277,-0.185707,0,1
3519,88,-0.315771,-0.375110,0.242533,-0.355079,-0.156050,0,1
3500,88,-0.382099,-0.243701,0.201196,-0.325703,-0.222270,0,1
3492,88,0.034752,-0.221639,-0.074698,-0.003702,0.217439,1,0
3484,88,0.169719,-0.278077,-0.207097,-0.070807,0.203108,1,0
3506,88,-0.416760,-0.308436,0.262963,-0.313758,-0.117662,0,1
3501,88,-0.391400,-0.392603,0.080394,-0.303713,-0.166830,0,1
3511,88,-0.352982,-0.359330,0.086839,-0.282672,-0.141743,0,1
3493,88,0.075317,-0.190029,-0.176484,-0.058768,0.215267,1,0
3515,88,-0.403751,-0.391913,0.187382,-0.325898,-0.104104,0,1
3481,88,0.007624,-0.269116,-0.208621,-0.096012,0.149544,1,0
3497,88,0.084969,-0.294859,-0.170473,-0.040884,0.106808,1,0
3530,89,0.185702,-0.268243,-0.205356,-0.054385,0.189031,1,0
3546,89,-0.355824,-0.363006,0.233630,-0.281024,-0.122598,0,1
3545,89,-0.419683,-0.488973,0.170042,-0.346916,-0.082084,0,1
3521,89,0.254100,-0.241229,-0.231056,-0.041759,0.145691,1,0
3551,89,-0.414125,-0.409222,0.158961,-0.360104,-0.133061,0,1
3540,89,-0.351748,-0.372393,0.185205,-0.382098,-0.140881,0,1
3539,89,0.144141,-0.251649,-0.157848,-0.071423,0.273869,1,0
3544,89,-0.407477,-0.354779,0.146205,-0.378243,-0.105598,0,1
3556,89,-0.396085,-0.324709,0.187780,-0.318557,-0.107360,0,1
3534,89,0.178043,-0.253675,-0.204561,-0.013952,0.218080,1,0
3532,89,0.208425,-0.228312,-0.227070,-0.080778,0.223500,1,0
3524,89,0.270201,-0.330008,-0.214918,0.002572,0.166646,1,0
3552,89,-0.391539,-0.311628,0.179179,-0.353824,-0.230304,0,1
3522,89,0.220563,-0.276648,-0.241584,0.066604,0.078130,1,0
3541,89,-0.421094,-0.343045,0.162028,-0.336561,-0.183395,0,1
3526,89,0.206191,-0.157465,-0.208237,-0.003514,0.160623,1,0
3533,89,0.179942,-0.322046,-0.179881,-0.065479,0.143051,1,0
3553,89,-0.336314,-0.426186,0.142452,-0.261653,-0.143602,0,1
3542,89,-0.373224,-0.340101,0.246272,-0.351943,-0.141160,0,1
3538,89,0.118123,-0.241811,-0.168093,0.036147,0.202841,1,0
3525,89,0.166752,-0.313513,-0.175191,-0.131405,0.259439,1,0
3547,89,-0.356463,-0.332727,0.126616,-0.342273,-0.121732,0,1
3520,89,0.159347,-0.243284,-0.138015,-0.089908,0.143141,1,0
3529,89,0.187526,-0.176983,-0.121545,0.060812,0.218524,1,0
3549,89,-0.338634,-0.292156,0.220344,-0.384365,-0.170902,0,1
3535,89,0.241975,-0.284703,-0.184264,0.098082,0.155474,1,0
3557,89,-0.375177,-0.300403,0.229225,-0.362488,-0.122129,0,1
3537,89,0.169339,-0.229477,-0.087696,-0.005704,0.188926,1,0
3527,89,0.195308,-0.300246,-0.179487,-0.025539,0.178458,1,0
3555,89,-0.403707,-0.363216,0.208453,-0.452313,-0.158958,0,1
3550,89,-0.464709,-0.366893,0.146217,-0.331934,-0.143793,0,1
3528,89,0.179097,-0.224493,-0.239332,0.006391,0.218077,1,0
3559,89,-0.320299,-0.289869,0.185908,-0.342540,-0.112975,0,1
3543,89,-0.360498,-0.361144,0.140975,-0.411322,-0.160955,0,1
3558,89,-0.332458,-0.487520,0.242674,-0.384699,-0.228940,0,1
3536,89,0.155580,-0.239416,-0.191837,0.017879,0.159337,1,0
3531,89,0.267036,-0.262672,-0.155875,-0.001415,0.137823,1,0
3554,89,-0.388139,-0.333159,0.201559,-0.386748,-0.151160,0,1
3523,89,0.204275,-0.229542,-0.218079,-0.020391,0.243995,1,0
3548,89,-0.386077,-0.300935,0.148801,-0.281612,-0.099457,0,1
3583,90,-0.434944,-0.317889,0.223299,-0.376955,-0.274422,0,1
3564,90,0.228938,-0.186537,-0.276885,-0.005253,0.215919,1,0
3596,90,-0.310566,-0.374859,0.121668,-0.413869,-0.143021,0,1
3595,90,-0.378999,-0.334145,0.162401,-0.379846,-0.129072,0,1
3587,90,-0.397230,-0.310534,0.222415,-0.353656,-0.134816,0,1
3569,90,0.225392,-0.215937,-0.158975,-0.030331,0.200324,1,0
3597,90,-0.442840,-0.394517,0.188847,-0.356475,-0.223657,0,1
3593,90,-0.488499,-0.409051,0.213638,-0.400488,-0.248642,0,1
3565,90,0.163561,-0.336097,-0.120303,-0.042566,0.176527,1,0
3566,90,0.243581,-0.268415,-0.251645,0.035082,0.151740,1,0
3598,90,-0.395717,-0.334892,0.104668,-0.302768,-0.240117,0,1
3576,90,0.226741,-0.306896,-0.175733,-0.011347,0.226246,1,0
3577,90,0.199765,-0.366673,-0.115823,-0.059527,0.133134,1,0
3572,90,0.167518,-0.382808,-0.198653,-0.083746,0.273721,1,0
3573,90,0.169735,-0.310488,-0.230525,-0.005167,0.234303,1,0
3560,90,0.224739,-0.363081,-0.261238,-0.087358,0.182428,1,0
3581,90,-0.359695,-0.395420,0.142061,-0.441733,-0.205533,0,1
3575,90,0.163258,-0.182215,-0.209514,-0.132522,0.210439,1,0
3591,90,-0.383021,-0.486412,0.205029,-0.398052,-0.199110,0,1
3590,90,-0.384797,-0.317030,0.162307,-0.357060,-0.201604,0,1
3571,90,0.233309,-0.288294,-0.284446,-0.025721,0.183540,1,0
3584,90,-0.322196,-0.429715,0.182363,-0.383893,-0.235202,0,1
3585,90,-0.392521,-0.356681,0.243904,-0.381674,-0.167818,0,1
3594,90,-0.429198,-0.432373,0.178645,-0.417072,-0.170044,0,1
3567,90,0.261732,-0.299607,-0.176846,0.035630,0.127619,1,0
3586,90,-0.391902,-0.384464,0.208998,-0.415481,-0.136701,0,1
3570,90,0.267870,-0.280485,-0.189684,0.029449,0.114246,1,0
3568,90,0.277234,-0.294637,-0.262266,-0.065742,0.122413,1,0
3574,90,0.291055,-0.366683,-0.241347,-0.007830,0.208068,1,0
3592,90,-0.367813,-0.424479,0.108993,-0.344662,-0.131302,0,1
3589,90,-0.398288,-0.403979,0.129269,-0.414045,-0.295771,0,1
3563,90,0.059310,-0.237866,-0.255010,-0.076493,0.153378,1,0
3599,90,-0.279685,-0.337136,0.176907,-0.431538,-0.154453,0,1
3562,90,0.179507,-0.279870,-0.072861,-0.005031,0.209978,1,0
3588,90,-0.339290,-0.410593,0.217686,-0.287856,-0.121010,0,1
3582,90,-0.405169,-0.398870,0.182785,-0.394057,-0.234497,0,1
3579,90,0.175056,-0.269969,-0.184253,-0.069077,0.162059,1,0
3578,90,0.257723,-0.258697,-0.193105,0.047666,0.157332,1,0
3580,90,-0.335149,-0.475933,0.165575,-0.317151,-0.155115,0,1
3561,90,0.206693,-0.323774,-0.211136,0.100236,0.295932,1,0
3609,91,0.142915,-0.389200,-0.175299,0.004712,0.112906,1,0
3617,91,0.186814,-0.447254,-0.149706,-0.027996,0.206830,1,0
3624,91,-0.515202,-0.373130,0.099725,-0.505990,-0.047059,0,1
3600,91,0.100807,-0.406442,-0.248222,-0.052417,0.130068,1,0
3611,91,0.197452,-0.434647,-0.165228,-0.016121,0.151476,1,0
3619,91,0.246195,-0.292779,-0.270946,0.000318,0.186985,1,0
3615,91,0.221910,-0.524722,-0.232845,-0.073527,0.194860,1,0
3631,91,-0.360853,-0.444933,0.224594,-0.488499,-0.152813,0,1
3621,91,-0.423561,-0.424776,0.206812,-0.365081,-0.111424,0,1
3630,91,-0.412829,-0.367231,0.144284,-0.561558,-0.052532,0,1
3628,91,-0.340066,-0.406175,0.187272,-0.446168,-0.172421,0,1
3614,91,0.160158,-0.341128,-0.108628,-0.068055,0.138756,1,0
3601,91,0.162801,-0.377292,-0.236340,-0.032416,0.160353,1,0
3636,91,-0.408538,-0.481753,0.213766,-0.452412,-0.151555,0,1
3622,91,-0.449910,-0.359676,0.104963,-0.504005,-0.201532,0,1
3626,91,-0.401331,-0.500609,0.113711,-0.412893,-0.201979,0,1
3625,91,-0.403413,-0.525857,0.238661,-0.432355,-0.161380,0,1
3605,91,0.268620,-0.326282,-0.215778,-0.104376,0.217728,1,0
3612,91,0.263755,-0.268559,-0.230886,-0.080581,0.132958,1,0
3608,91,0.221065,-0.264775,-0.169695,0.064255,0.188649,1,0
3616,91,0.175042,-0.417087,-0.305322,-0.112401,0.057786,1,0
3613,91,0.229716,-0.454864,-0.233071,-0.034728,0.179810,1,0
3632,91,-0.415177,-0.548514,0.124285,-0.300449,-0.110878,0,1
3629,91,-0.329561,-0.437556,0.155715,-0.427929,-0.256641,0,1
3635,91,-0.440802,-0.420881,0.220659,-0.293198,-0.114840,0,1
3639,91,-0.343764,-0.395756,0.127213,-0.406483,-0.162210,0,1
3620,91,-0.496012,-0.459991,0.106886,-0.332682,-0.157438,0,1
3602,91,0.143939,-0.406516,-0.229604,-0.102474,0.070143,1,0
3606,91,0.197772,-0.351474,-0.197299,0.068190,0.173810,1,0
3603,91,0.217964,-0.445518,-0.117822,-0.036814,0.128859,1,0
3610,91,0.039917,-0.409485,-0.175405,-0.031190,0.193246,1,0
3634,91,-0.459043,-0.431355,0.183837,-0.430555,-0.259367,0,1
3633,91,-0.367759,-0.456309,0.191034,-0.405957,-0.134990,0,1
3604,91,0.186763,-0.394501,-0.210988,-0.000763,0.140825,1,0
3618,91,0.299598,-0.346289,-0.236091,-0.055212,0.169135,1,0
3627,91,-0.372125,-0.383109,0.197089,-0.354613,-0.206006,0,1
3638,91,-0.424377,-0.518382,0.226049,-0.461748,-0.158130,0,1
3607,91,0.207245,-0.328777,-0.177884,-0.001800,0.193809,1,0
3637,91,-0.392508,-0.447166,0.185277,-0.340119,-0.167552,0,1
3623,91,-0.333725,-0.431190,0.160099,-0.481492,-0.127844,0,1
3662,92,-0.424884,-0.487816,0.204035,-0.461952,-0.179435,0,1
3640,92,0.217599,-0.357963,-0.211074,-0.075311,0.093479,1,0
3653,92,0.097594,-0.412082,-0.179191,-0.137840,0.092290,1,0
3656,92,0.158054,-0.458773,-0.278639,-0.086445,0.138551,1,0
3647,92,0.194307,-0.436763,-0.164272,-0.078852,0.249986,1,0
3661,92,-0.483352,-0.426244,0.221522,-0.373331,-0.098782,0,1
3671,92,-0.429113,-0.472918,0.141309,-0.463592,-0.161648,0,1
3666,92,-0.417205,-0.439699,0.108940,-0.450988,-0.170606,0,1
3665,92,-0.517598,-0.597380,0.109450,-0.485218,-0.182073,0,1
3677,92,-0.315132,-0.546380,0.119104,-0.416773,-0.180284,0,1
3649,92,0.195192,-0.391473,-0.245768,-0.112767,0.181106,1,0
3652,92,0.122856,-0.406886,-0.207276,-0.134658,0.135415,1,0
3660,92,-0.379519,-0.394924,0.157078,-0.454157,-0.123361,0,1
3645,92,0.205307,-0.497296,-0.119970,-0.038576,0.172937,1,0
3668,92,-0.364707,-0.513149,0.099653,-0.542041,-0.162417,0,1
3642,92,0.157301,-0.541259,-0.274652,-0.109945,0.180782,1,0
3667,92,-0.430069,-0.496473,0.151608,-0.424601,-0.209452,0,1
3659,92,0.218554,-0.368627,-0.284468,-0.137321,0.118079,1,0
3664,92,-0.389183,-0.585365,0.083244,-0.390924,-0.190827,0,1
3672,92,-0.325273,-0.517390,0.175677,-0.469831,-0.145877,0,1
3643,92,0.218485,-0.519518,-0.187096,-0.103948,0.177328,1,0
3676,92,-0.426784,-0.518398,0.169062,-0.435355,-0.171265,0,1
3657,92,0.263623,-0.399357,-0.098291,-0.114014,0.086152,1,0
3678,92,-0.413706,-0.457203,0.112485,-0.333538,-0.108231,0,1
3641,92,0.096364,-0.465360,-0.244579,-0.148524,0.179101,1,0
3650,92,0.205084,-0.315922,-0.155007,-0.112941,0.171794,1,0
3655,92,0.146166,-0.493713,-0.197245,-0.154962,0.115413,1,0
3663,92,-0.468825,-0.443831,0.153891,-0.446938,-0.219641,0,1
3679,92,-0.411360,-0.455437,0.186591,-0.439385,-0.194742,0,1
3654,92,0.221878,-0.343227,-0.280354,-0.096350,0.173969,1,0
3646,92,0.201578,-0.416846,-0.260154,-0.142658,0.215162,1,0
3674,92,-0.467058,-0.433062,0.177493,-0.458571,-0.200089,0,1
3648,92,0.191122,-0.321165,-0.238477,-0.143735,0.158556,1,0
3669,92,-0.370975,-0.471846,0.204662,-0.495233,-0.201518,0,1
3644,92,0.121386,-0.461116,-0.213350,-0.147069,0.174959,1,0
3670,92,-0.397780,-0.544729,0.141607,-0.405523,-0.197814,0,1
3651,92,0.140464,-0.403771,-0.286274,-0.117879,0.097740,1,0
3673,92,-0.405696,-0.476736,0.217563,-0.371372,-0.123221,0,1
3658,92,0.171584,-0.418860,-0.251789,-0.163425,0.021943,1,0
3675,92,-0.342273,-0.494387,0.118720,-0.370053,-0.247395,0,1
3682,93,-0.023197,-0.509725,-0.266403,-0.266105,0.126833,1,0
3712,93,-0.420095,-0.462794,0.236058,-0.501114,-0.148110,0,1
3700,93,-0.420457,-0.470513,0.168621,-0.359275,-0.123988,0,1
3690,93,0.031943,-0.469730,-0.198341,-0.191049,0.194492,1,0
3701,93,-0.328850,-0.505787,0.286573,-0.499144,-0.205640,0,1
3713,93,-0.394764,-0.541299,0.123292,-0.397242,-0.217452,0,1
3704,93,-0.350917,-0.520504,0.244392,-0.489548,-0.154831,0,1
3709,93,-0.324122,-0.539453,0.025865,-0.510321,-0.188662,0,1
3692,93,0.095785,-0.506261,-0.242705,-0.150036,0.116942,1,0
3683,93,-0.014836,-0.497486,-0.216663,-0.114483,0.129419,1,0
3695,93,0.002466,-0.486358,-0.279849,-0.184050,0.126003,1,0
3718,93,-0.464523,-0.576901,0.248164,-0.459657,-0.131351,0,1
3694,93,0.054874,-0.464312,-0.280094,-0.196433,0.109142,1,0
3686,93,0.005309,-0.559893,-0.250273,-0.229247,0.299624,1,0
3689,93,0.058291,-0.510543,-0.226318,-0.277601,0.143124,1,0
3680,93,0.065834,-0.468012,-0.263232,-0.189343,0.105064,1,0
3702,93,-0.354345,-0.510740,0.070844,-0.420602,-0.105436,0,1
3707,93,-0.385586,-0.547587,0.102693,-0.401333,-0.193081,0,1
3684,93,0.049234,-0.424979,-0.252181,-0.259122,0.088814,1,0
3696,93,0.116465,-0.492305,-0.272217,-0.230606,0.125169,1,0
3717,93,-0.342520,-0.641111,0.050755,-0.368433,-0.232455,0,1
3703,93,-0.377093,-0.517351,0.212563,-0.459189,-0.162541,0,1
3681,93,0.079923,-0.511650,-0.225368,-0.192471,0.197740,1,0
3710,93,-0.502188,-0.566686,0.184250,-0.436001,-0.158045,0,1
3708,93,-0.353266,-0.500330,0.200472,-0.398069,-0.165336,0,1
3716,93,-0.333930,-0.598767,0.156695,-0.389558,-0.135332,0,1
3691,93,0.022840,-0.529921,-0.121150,-0.207221,0.082794,1,0
3697,93,0.071192,-0.515001,-0.164341,-0.140634,0.078397,1,0
3711,93,-0.376219,-0.490793,0.149192,-0.507420,-0.187655,0,1
3715,93,-0.342041,-0.544130,0.117510,-0.363142,-0.146257,0,1
3688,93,-0.003888,-0.560832,-0.079971,-0.144462,0.183798,1,0
3693,93,0.147457,-0.480394,-0.186231,-0.188971,0.080933,1,0
3685,93,0.084984,-0.429300,-0.181273,-0.247870,0.196789,1,0
3706,93,-0.371324,-0.563981,0.113668,-0.376852,-0.218765,0,1
3714,93,-0.318190,-0.479148,0.167372,-0.366076,-0.125674,0,1
3687,93,0.160671,-0.562895,-0.171219,-0.101581,0.070538,1,0
3705,93,-0.398511,-0.483549,0.137511,-0.432428,-0.181848,0,1
3698,93,0.077738,-0.540059,-0.228388,-0.161541,0.187206,1,0
3699,93,0.096967,-0.510110,-0.171653,-0.290145,0.202091,1,0
3719,93,-0.330528,-0.511628,0.156744,-0.430077,-0.156141,0,1
3727,94,-0.150741,-0.571522,-0.188847,-0.250750,0.127668,1,0
3726,94,-0.158099,-0.526469,-0.278186,-0.284003,0.249279,1,0
3747,94,-0.322411,-0.493767,0.169457,-0.440611,-0.134789,0,1
3738,94,-0.120358,-0.564991,-0.266559,-0.239069,0.146009,1,0
3753,94,-0.349021,-0.548872,0.121891,-0.419015,-0.228546,0,1
3743,94,-0.351291,-0.558307,0.175834,-0.427131,-0.177527,0,1
3725,94,-0.047142,-0.564204,-0.286822,-0.300503,0.132231,1,0
3757,94,-0.251678,-0.516348,0.103079,-0.387753,-0.156476,0,1
3732,94,-0.246772,-0.561659,-0.115717,-0.210367,0.231507,1,1
3724,94,-0.067170,-0.603862,-0.227927,-0.354647,0.127922,1,0
3736,94,-0.101335,-0.468598,-0.177308,-0.301610,0.155434,1,0
3739,94,-0.090711,-0.530270,-0.147550,-0.335505,0.057888,1,0
3759,94,-0.256111,-0.493991,0.034291,-0.413856,-0.248273,0,1
3733,94,-0.079530,-0.619899,-0.150397,-0.282458,0.121871,1,0
3756,94,-0.320276,-0.431643,0.154815,-0.447360,-0.054719,0,1
3748,94,-0.270581,-0.664618,0.256935,-0.397652,-0.196603,0,1
3723,94,-0.064256,-0.540705,-0.249704,-0.203673,0.159747,1,0
3750,94,-0.351044,-0.638543,0.146208,-0.389062,-0.137223,0,1
3746,94,-0.300421,-0.524653,0.191540,-0.417712,-0.256769,0,1
3737,94,-0.123112,-0.474965,-0.222862,-0.206476,0.173034,1,0
3751,94,-0.277754,-0.466218,0.159253,-0.446171,-0.142921,0,1
3754,94,-0.335947,-0.575376,0.186323,-0.407426,-0.140277,0,1
3720,94,-0.118384,-0.537450,-0.251315,-0.319864,0.176689,1,0
3728,94,-0.102476,-0.563200,-0.180515,-0.300166,0.105451,1,0
3752,94,-0.407388,-0.511604,0.082045,-0.387860,-0.187064,0,1
3731,94,-0.017745,-0.541268,-0.222144,-0.235602,0.149852,1,0
3722,94,-0.162498,-0.476870,-0.238010,-0.318526,0.189725,1,0
3740,94,-0.315044,-0.525852,0.080891,-0.448727,-0.101565,0,1
3742,94,-0.373461,-0.517059,0.104362,-0.391076,-0.140773,0,1
3758,94,-0.261577,-0.536600,0.130655,-0.314087,-0.199010,0,1
3734,94,-0.200869,-0.516962,-0.212384,-0.360615,0.220460,1,1
3744,94,-0.260369,-0.563268,0.078229,-0.307955,-0.125172,0,1
3721,94,-0.044676,-0.570955,-0.191797,-0.281505,0.142304,1,0
3745,94,-0.257630,-0.521603,0.146730,-0.346989,-0.195878,0,1
3741,94,-0.387905,-0.527785,0.167577,-0.474723,-0.192850,0,1
3735,94,-0.024277,-0.556526,-0.240161,-0.281908,0.074526,1,0
3730,94,-0.083455,-0.482944,-0.143454,-0.276489,0.181849,1,0
3755,94,-0.232084,-0.576894,0.168950,-0.395357,-0.162048,0,1
3729,94,-0.104432,-0.600916,-0.215202,-0.272051,0.151905,1,0
3749,94,-0.402798,-0.540479,0.118885,-0.473191,-0.158033,0,1
3765,95,-0.168389,-0.510253,-0.230371,-0.288930,0.171009,1,1
3776,95,-0.254439,-0.414770,-0.219637,-0.324890,0.093656,1,1
3785,95,-0.272205,-0.506670,0.117689,-0.368619,-0.096750,1,1
3770,95,-0.132255,-0.497803,-0.172208,-0.351712,0.175563,1,1
3791,95,-0.220436,-0.451943,0.175958,-0.322514,-0.150465,1,1
3797,95,-0.204778,-0.584968,0.231654,-0.392050,-0.120315,1,1
3769,95,-0.139214,-0.517941,-0.147130,-0.402207,0.098181,1,1
3774,95,-0.177039,-0.594521,-0.262938,-0.323982,0.124315,1,1
3782,95,-0.211406,-0.482729,0.191264,-0.357211,-0.247958,1,1
3798,95,-0.350965,-0.597141,0.026718,-0.367302,-0.195759,0,1
3796,95,-0.236152,-0.537290,0.133976,-0.366959,-0.190956,1,1
3789,95,-0.215997,-0.566318,0.208353,-0.373039,-0.178713,1,1
3793,95,-0.210492,-0.457952,0.090983,-0.374781,-0.275509,1,1
3762,95,-0.111791,-0.572035,-0.248489,-0.363985,0.181570,1,1
3799,95,-0.377786,-0.632250,0.188270,-0.351528,-0.162101,0,1
3772,95,-0.113687,-0.604208,-0.187515,-0.364246,0.124946,1,1
3777,95,-0.198689,-0.540962,-0.306893,-0.353967,0.159889,1,1
3781,95,-0.246624,-0.521232,0.149594,-0.333655,-0.165636,1,1
3763,95,-0.148757,-0.540075,-0.221591,-0.397521,0.201108,1,1
3786,95,-0.237346,-0.491569,0.163978,-0.416321,-0.101145,1,1
3760,95,-0.206171,-0.559586,-0.113178,-0.378132,0.154072,1,1
3780,95,-0.320969,-0.556900,0.128483,-0.367354,-0.239103,0,1
3794,95,-0.158931,-0.513616,0.175315,-0.449040,-0.146349,1,1
3784,95,-0.295869,-0.547400,0.176537,-0.427198,-0.230498,1,1
3768,95,-0.231364,-0.535107,-0.191049,-0.324327,0.096764,1,1
3795,95,-0.212755,-0.606291,0.095097,-0.377322,-0.194604,1,1
3767,95,-0.065635,-0.613499,-0.229081,-0.331372,0.184511,1,0
3792,95,-0.222879,-0.660094,0.154236,-0.390724,-0.143586,1,1
3764,95,-0.176685,-0.538133,-0.225964,-0.266274,0.125467,1,1
3783,95,-0.205094,-0.474396,0.065874,-0.456887,-0.170494,1,1
3771,95,-0.169806,-0.639953,-0.251509,-0.309716,0.198136,1,1
3766,95,-0.125606,-0.494309,-0.195405,-0.234670,0.130088,1,1
3761,95,-0.211957,-0.597168,-0.124169,-0.424723,0.137041,1,1
3788,95,-0.254832,-0.503533,0.185030,-0.260513,-0.195417,1,1
3787,95,-0.297841,-0.638451,0.196664,-0.428476,0.010115,0,1
3775,95,-0.127602,-0.550030,-0.226084,-0.313753,0.119296,1,1
3778,95,-0.163946,-0.645154,-0.275739,-0.259667,0.202511,1,1
3773,95,-0.131627,-0.517423,-0.165279,-0.327929,0.095671,1,1
3779,95,-0.080764,-0.547034,-0.201990,-0.268208,0.166049,1,0
3790,95,-0.245820,-0.581262,0.169765,-0.376250,-0.189588,1,1
3803,96,-0.245560,-0.602703,-0.299470,-0.359551,0.083415,1,1
3826,96,-0.087336,-0.484513,0.118227,-0.309662,-0.184816,0,1
3816,96,-0.311755,-0.522004,-0.297479,-0.246790,0.166314,1,0
3808,96,-0.263485,-0.586368,-0.221783,-0.368078,0.152512,1,1
3824,96,-0.173447,-0.624477,0.153767,-0.402853,-0.166566,1,1
3833,96,-0.172532,-0.611051,0.186715,-0.346801,-0.210339,1,1
3812,96,-0.309984,-0.520146,-0.317408,-0.400663,0.111385,1,0
3831,96,-0.191128,-0.568819,0.086179,-0.288535,-0.230609,1,1
3834,96,-0.298639,-0.546834,0.181711,-0.391077,-0.194911,1,1
3805,96,-0.150681,-0.591177,-0.205521,-0.443745,0.086459,1,1
3811,96,-0.279297,-0.548582,-0.213808,-0.373959,0.180538,1,1
3800,96,-0.278418,-0.638900,-0.240748,-0.365889,0.248890,1,1
3836,96,-0.119532,-0.581244,0.121261,-0.333595,-0.112206,1,1
3818,96,-0.256279,-0.578680,-0.200240,-0.263563,0.085564,1,1
3806,96,-0.246093,-0.516178,-0.181935,-0.416638,0.175692,1,1
3802,96,-0.266948,-0.612272,-0.153098,-0.336008,0.125982,1,1
3823,96,-0.080994,-0.502628,0.131086,-0.345460,-0.233888,0,1
3828,96,-0.117856,-0.574545,0.122024,-0.318674,-0.114231,1,1
3801,96,-0.307201,-0.505637,-0.307945,-0.376336,0.227282,1,0
3815,96,-0.261768,-0.490209,-0.265077,-0.442080,0.187507,1,1
3809,96,-0.273504,-0.553259,-0.129707,-0.419417,0.111228,1,1
3819,96,-0.242308,-0.598522,-0.213173,-0.366661,0.199933,1,1
3807,96,-0.119166,-0.526105,-0.198832,-0.384924,0.160154,1,1
3832,96,-0.242821,-0.555749,0.086782,-0.307439,-0.108896,1,1
3825,96,-0.110391,-0.610849,0.044809,-0.337351,-0.205142,0,1
3835,96,-0.157776,-0.566104,0.153946,-0.359424,-0.165436,1,1
3804,96,-0.189313,-0.444861,-0.199358,-0.312528,0.178807,1,1
3820,96,-0.113381,-0.658547,0.184059,-0.395955,-0.143603,0,1
3814,96,-0.355731,-0.521132,-0.159090,-0.372786,0.063823,1,0
3829,96,-0.216977,-0.591528,0.137268,-0.350117,-0.201214,1,1
3810,96,-0.237035,-0.566110,-0.139123,-0.467136,0.142121,1,1
3827,96,-0.237479,-0.546069,0.135660,-0.304677,-0.176295,1,1
3822,96,-0.138979,-0.653120,0.189820,-0.361705,-0.175456,1,1
3838,96,-0.187720,-0.571919,0.089624,-0.317923,-0.084614,1,1
3839,96,-0.244179,-0.598563,0.117932,-0.303389,-0.049931,1,1
3821,96,-0.108379,-0.576862,0.086735,-0.323169,-0.173618,1,1
3817,96,-0.248049,-0.579478,-0.321035,-0.425389,0.099506,1,1
3830,96,-0.187601,-0.591325,0.166972,-0.306619,-0.161201,1,1
3837,96,-0.164936,-0.521284,0.136594,-0.344813,-0.201056,1,1
3813,96,-0.220484,-0.481716,-0.265845,-0.386590,0.179054,1,1
3848,97,-0.324375,-0.546984,-0.214397,-0.485573,0.163939,1,0
3866,97,0.151290,-0.604236,0.138715,-0.271082,-0.194873,0,1
3853,97,-0.295829,-0.605318,-0.344832,-0.444793,0.195392,1,0
3840,97,-0.302124,-0.533495,-0.223012,-0.395481,0.162445,1,0
3856,97,-0.292147,-0.609703,-0.284771,-0.451034,0.237872,1,0
3862,97,0.021696,-0.591512,0.142795,-0.339024,-0.214590,0,1
3863,97,-0.032276,-0.706454,0.110706,-0.394876,-0.123133,0,1
3841,97,-0.233523,-0.604335,-0.237245,-0.434632,0.116262,1,0
3846,97,-0.241339,-0.547654,-0.168390,-0.429059,0.099669,1,0
3876,97,-0.048833,-0.535314,0.183354,-0.274580,-0.194463,0,1
3865,97,0.027626,-0.518660,0.107322,-0.216839,-0.155404,0,1
3868,97,0.089196,-0.591161,0.303224,-0.176451,-0.213073,0,1
3852,97,-0.290967,-0.656309,-0.211080,-0.453429,0.049391,1,0
3857,97,-0.396898,-0.494206,-0.181165,-0.398901,0.136358,1,0
3850,97,-0.290538,-0.633718,-0.224309,-0.352977,-0.001813,1,0
3874,97,0.102152,-0.540394,0.130570,-0.255482,-0.210301,0,1
3842,97,-0.358735,-0.605209,-0.196942,-0.389246,0.088210,1,0
3860,97,0.079229,-0.517406,0.081050,-0.302888,-0.127403,0,1
3878,97,-0.041101,-0.562762,0.069623,-0.314187,-0.201150,0,1
3864,97,0.008416,-0.536029,0.052138,-0.234241,-0.279507,0,1
3879,97,0.063163,-0.609549,0.090311,-0.340959,-0.234106,0,1
3861,97,0.002748,-0.564678,0.153927,-0.252121,-0.160557,0,1
3854,97,-0.297765,-0.497340,-0.239114,-0.445816,0.146668,1,0
3867,97,-0.023660,-0.585267,0.167964,-0.368692,-0.133099,0,1
3849,97,-0.317003,-0.530393,-0.322440,-0.497753,0.149171,1,0
3871,97,0.033775,-0.551664,0.096880,-0.225611,-0.195217,0,1
3859,97,-0.306046,-0.575462,-0.172544,-0.363351,0.168262,1,0
3875,97,0.003968,-0.572448,0.119898,-0.377170,-0.208230,0,1
3869,97,-0.000343,-0.638270,0.137686,-0.327941,-0.217014,0,1
3845,97,-0.332552,-0.509220,-0.297568,-0.394878,0.163777,1,0
3872,97,-0.092671,-0.603269,0.115149,-0.233185,-0.252354,0,1
3858,97,-0.241253,-0.515684,-0.213210,-0.439210,0.195922,1,0
3873,97,-0.019059,-0.506673,0.174322,-0.207975,-0.190042,0,1
3877,97,-0.083264,-0.614203,0.119731,-0.274465,-0.129371,0,1
3870,97,-0.018446,-0.562581,0.184090,-0.279841,-0.180239,0,1
3851,97,-0.240552,-0.583489,-0.163168,-0.395785,0.111813,1,0
3855,97,-0.326304,-0.538547,-0.219940,-0.461560,0.240940,1,0
3844,97,-0.386613,-0.593187,-0.203176,-0.462253,0.099113,1,0
3843,97,-0.291488,-0.564808,-0.254532,-0.430898,0.181741,1,0
3847,97,-0.354830,-0.547976,-0.176461,-0.462946,0.107383,1,0
3913,98,0.254998,-0.556691,0.063009,-0.227315,-0.126988,0,1
3885,98,-0.318558,-0.594215,-0.278871,-0.487675,0.186457,1,0
3891,98,-0.279877,-0.519890,-0.311801,-0.373165,0.201873,1,0
3880,98,-0.386335,-0.642692,-0.228998,-0.535416,0.146966,1,0
3888,98,-0.371122,-0.462317,-0.174730,-0.391563,0.148828,1,0
3900,98,0.195968,-0.572268,0.121384,-0.233730,-0.148896,0,1
3894,98,-0.351447,-0.585913,-0.242183,-0.421883,0.122697,1,0
3912,98,0.028802,-0.576012,0.106463,-0.194855,-0.133891,0,1
3886,98,-0.359904,-0.578396,-0.256543,-0.446720,0.201613,1,0
3909,98,0.025819,-0.539050,0.118258,-0.203384,-0.131717,0,1
3890,98,-0.425602,-0.621175,-0.280561,-0.459030,0.137870,1,0
3898,98,-0.295274,-0.530744,-0.283935,-0.361399,0.118568,1,0
3897,98,-0.404962,-0.540480,-0.310589,-0.490817,0.134692,1,0
3902,98,0.116482,-0.589251,0.121855,-0.210816,-0.125437,0,1
3905,98,0.119435,-0.569267,0.098515,-0.268616,-0.229650,0,1
3916,98,0.187581,-0.543631,0.079243,-0.132550,-0.225214,0,1
3908,98,0.103112,-0.550814,0.089691,-0.177648,-0.174150,0,1
3901,98,0.106336,-0.492883,0.164812,-0.267169,-0.225408,0,1
3882,98,-0.220819,-0.616671,-0.193732,-0.446813,0.123382,1,0
3911,98,0.168935,-0.640767,0.111932,-0.121882,-0.080826,0,1
3896,98,-0.370769,-0.572894,-0.257726,-0.432157,0.085693,1,0
3910,98,0.098492,-0.596322,0.109599,-0.126027,-0.202777,0,1
3918,98,0.107898,-0.497336,0.080204,-0.216557,-0.143835,0,1
3899,98,-0.332212,-0.601914,-0.287403,-0.412242,0.135339,1,0
3914,98,0.152580,-0.527491,0.227538,-0.178444,-0.232154,0,1
3906,98,0.176039,-0.528573,0.049665,-0.206105,-0.249879,0,1
3883,98,-0.393269,-0.516223,-0.291498,-0.464447,0.181296,1,0
3881,98,-0.270472,-0.584178,-0.192561,-0.435022,0.037550,1,0
3907,98,0.102639,-0.572517,0.112587,-0.199982,-0.229522,0,1
3892,98,-0.399850,-0.481997,-0.171003,-0.502353,0.010762,1,0
3919,98,0.088832,-0.527713,0.092150,-0.202092,-0.249775,0,1
3915,98,0.172019,-0.618870,0.074524,-0.243201,-0.225982,0,1
3895,98,-0.367804,-0.498523,-0.224482,-0.410800,0.080981,1,0
3889,98,-0.352457,-0.555935,-0.191739,-0.494456,0.178687,1,0
3887,98,-0.362729,-0.608096,-0.257226,-0.436219,0.067749,1,0
3904,98,0.154792,-0.557268,0.148481,-0.116030,-0.221617,0,1
3884,98,-0.374954,-0.564996,-0.213480,-0.380806,0.049440,1,0
3917,98,0.029201,-0.548745,0.071924,-0.193480,-0.240491,0,1
3893,98,-0.333615,-0.544016,-0.200579,-0.349420,0.104088,1,0
3903,98,0.168761,-0.616275,0.178599,-0.147298,-0.239230,0,1
3921,99,-0.368077,-0.544755,-0.279116,-0.468978,0.089116,1,0
3933,99,-0.427426,-0.528205,-0.191524,-0.504234,0.063581,1,0
3956,99,0.180272,-0.632882,0.166201,-0.196740,-0.182489,0,1
3922,99,-0.314661,-0.461870,-0.209464,-0.354632,0.101552,1,0
3923,99,-0.423392,-0.567724,-0.211244,-0.517197,0.090493,1,0
3958,99,0.108678,-0.606416,0.129121,-0.197892,-0.199185,0,1
3954,99,0.153272,-0.641566,0.054074,-0.306873,-0.099754,0,1
3926,99,-0.383841,-0.506619,-0.281942,-0.462989,0.057088,1,0
3942,99,0.137579,-0.605071,0.219801,-0.190003,-0.160762,0,1
3955,99,0.232464,-0.558435,0.103477,-0.125994,-0.235072,0,1
3931,99,-0.351600,-0.598105,-0.251001,-0.429163,0.065518,1,0
3951,99,0.142409,-0.519768,0.186028,-0.168506,-0.233570,0,1
3959,99,0.146878,-0.574487,0.113006,-0.184692,-0.134513,0,1
3953,99,0.068629,-0.642267,0.164986,-0.191178,-0.339106,0,1
3949,99,0.195228,-0.632062,0.048492,-0.155261,-0.165580,0,1
3940,99,0.111624,-0.695679,0.034164,-0.101593,-0.205799,0,1
3920,99,-0.291653,-0.610195,-0.165055,-0.415055,0.202392,1,0
3945,99,0.142230,-0.595608,0.026808,-0.207325,-0.026307,0,1
3947,99,0.168978,-0.587004,0.048065,-0.229069,-0.134685,0,1
3925,99,-0.411370,-0.514163,-0.211938,-0.469834,0.155172,1,0
3927,99,-0.328512,-0.627313,-0.182389,-0.421755,0.087799,1,0
3934,99,-0.362479,-0.515254,-0.223942,-0.404826,0.117093,1,0
3930,99,-0.361296,-0.515820,-0.284860,-0.479735,0.128191,1,0
3932,99,-0.435984,-0.587550,-0.159291,-0.420860,0.142304,1,0
3957,99,0.090446,-0.467960,0.105830,-0.195718,-0.167879,0,1
3924,99,-0.499898,-0.593192,-0.254224,-0.497653,0.153327,1,0
3946,99,0.232432,-0.643263,0.091264,-0.153686,-0.135278,0,1
3935,99,-0.317034,-0.517967,-0.240037,-0.403125,0.233328,1,0
3948,99,0.182518,-0.546059,0.078893,-0.199280,-0.259134,0,1
3928,99,-0.294725,-0.596467,-0.179133,-0.437888,0.079534,1,0
3937,99,-0.303690,-0.482697,-0.220226,-0.415616,0.156343,1,0
3944,99,0.243586,-0.574184,0.091720,-0.204081,-0.215008,0,1
3952,99,0.137802,-0.708998,0.175080,-0.220280,-0.217824,0,1
3943,99,0.118942,-0.509210,0.116045,-0.206285,-0.247218,0,1
3929,99,-0.347806,-0.555788,-0.195136,-0.488655,0.114048,1,0
3941,99,0.126075,-0.541074,0.225920,-0.131106,-0.121642,0,1
3936,99,-0.429236,-0.631654,-0.255921,-0.522189,0.143860,1,0
3950,99,0.171593,-0.601921,0.149469,-0.209153,-0.119474,0,1
3938,99,-0.413318,-0.557127,-0.226715,-0.375519,0.033437,1,0
3939,99,-0.438791,-0.605601,-0.340612,-0.371873,0.101593,1,0
3960,100,-0.403286,-0.522773,-0.199732,-0.421529,0.068433,1,0
3986,100,0.288182,-0.636250,0.089136,-0.118233,-0.252510,0,1
3973,100,-0.406354,-0.565435,-0.101415,-0.444460,0.111782,1,0
3980,100,0.110132,-0.672231,0.096707,-0.172538,-0.187121,0,1
3991,100,0.151035,-0.577597,0.091201,-0.201653,-0.184419,0,1
3966,100,-0.403850,-0.541008,-0.352414,-0.416655,0.174987,1,0
3993,100,0.247160,-0.585692,0.034867,-0.201398,-0.290662,0,1
3989,100,0.212160,-0.574664,0.194344,-0.207077,-0.093989,0,1
3963,100,-0.364652,-0.619682,-0.222753,-0.485726,0.045381,1,0
3992,100,0.152425,-0.601931,0.102817,-0.214736,-0.099473,0,1
3999,100,0.227777,-0.603065,0.173398,-0.101885,-0.143799,0,1
3983,100,0.118018,-0.604177,0.089536,-0.209261,-0.202937,0,1
3998,100,0.162491,-0.590094,0.099043,-0.180052,-0.250560,0,1
3997,100,0.214292,-0.646902,0.159284,-0.114731,-0.163790,0,1
3976,100,-0.382378,-0.596179,-0.216124,-0.501624,0.182324,1,0
3994,100,0.213786,-0.546870,0.078695,-0.136362,-0.122923,0,1
3975,100,-0.296238,-0.596557,-0.230173,-0.455384,0.087512,1,0
3961,100,-0.383447,-0.615803,-0.228787,-0.409821,0.129328,1,0
3967,100,-0.465820,-0.536298,-0.323007,-0.401519,0.127258,1,0
3978,100,-0.435250,-0.672182,-0.263976,-0.439713,0.129478,1,0
3977,100,-0.421423,-0.634763,-0.203109,-0.389482,0.123634,1,0
3988,100,0.294220,-0.557666,0.108774,-0.211364,-0.203313,0,1
3987,100,0.086507,-0.527647,0.098711,-0.215574,-0.318489,0,1
3981,100,0.081677,-0.669427,0.099558,-0.116029,-0.276793,0,1
3964,100,-0.370975,-0.581065,-0.258049,-0.511232,0.080173,1,0
3968,100,-0.411776,-0.613117,-0.260284,-0.493940,0.109230,1,0
3984,100,0.114228,-0.643439,0.138196,-0.244745,-0.167322,0,1
3982,100,0.118230,-0.567741,0.196006,-0.213589,-0.248568,0,1
3985,100,0.192569,-0.605088,0.083147,-0.190155,-0.121846,0,1
3996,100,0.316059,-0.681470,0.015881,-0.258468,-0.244655,0,1
3974,100,-0.455108,-0.495631,-0.148068,-0.449887,0.146724,1,0
3979,100,-0.413359,-0.511365,-0.305294,-0.523481,0.118254,1,0
3972,100,-0.411252,-0.529617,-0.141934,-0.342426,0.128810,1,0
3970,100,-0.402144,-0.665830,-0.217656,-0.499362,0.062679,1,0
3971,100,-0.356714,-0.619096,-0.239760,-0.430930,0.120892,1,0
3969,100,-0.360495,-0.575183,-0.253023,-0.573403,0.070585,1,0
3965,100,-0.476805,-0.613737,-0.297453,-0.400856,-0.015723,1,0
3995,100,0.209248,-0.596003,0.053726,-0.204464,-0.168966,0,1
3990,100,0.120811,-0.634166,0.094773,-0.151795,-0.153275,0,1
3962,100,-0.394380,-0.623443,-0.240284,-0.498577,0.160832,1,0