@relation stream_gen

@attribute global_id NUMERIC
@attribute timestamp NUMERIC
@attribute f1 NUMERIC
@attribute f2 NUMERIC
@attribute f3 NUMERIC
@attribute f4 NUMERIC
@attribute class_0 {0,1}
@attribute class_1 {0,1}

@data
9,1,-0.785633,0.047516,0.223352,0.076475,1,1
5,1,-0.898325,-0.092399,0.184290,0.001297,1,1
25,1,-0.743207,-0.023873,-0.097861,-0.124498,1,1
37,1,-0.685125,-0.077336,-0.139101,-0.004119,1,1
24,1,-0.823652,-0.089007,-0.099828,0.060023,1,1
16,1,-0.879915,0.051129,0.145116,0.059091,1,1
18,1,-0.815538,0.043033,0.178057,0.058980,1,1
11,1,-0.805697,0.027970,0.227036,0.034550,1,1
13,1,-0.861270,-0.042857,0.070124,0.053237,1,1
6,1,-0.759261,-0.000747,0.136055,0.067590,1,1
28,1,-0.842135,-0.042688,0.016809,-0.039839,1,1
33,1,-0.810729,0.017760,-0.091662,-0.048522,1,1
0,1,-0.778089,0.061494,0.130247,0.098070,1,1
26,1,-0.807474,-0.003086,-0.154523,-0.087887,1,1
38,1,-0.873175,-0.038023,-0.137247,-0.067559,1,1
20,1,-0.780182,-0.048255,-0.101468,-0.011892,1,1
14,1,-0.755684,0.001018,0.106345,0.028216,1,1
31,1,-0.689682,-0.034291,-0.057638,-0.060742,1,1
1,1,-0.867183,-0.019640,0.157380,-0.015081,1,1
36,1,-0.725573,0.001902,-0.078272,-0.130773,1,1
17,1,-0.800057,0.011687,0.130901,0.113251,1,1
30,1,-0.853643,0.013873,-0.037708,-0.095615,1,1
15,1,-0.799997,-0.005774,0.041666,0.066376,1,1
4,1,-0.878266,-0.053578,0.119155,0.126320,1,1
8,1,-0.879990,0.011683,0.131059,0.119273,1,1
21,1,-0.763068,0.001627,-0.136712,0.022989,1,1
19,1,-0.800734,-0.038109,0.101833,0.071400,1,1
3,1,-0.789554,0.051675,0.178512,0.149833,1,1
34,1,-0.822801,-0.059578,-0.135154,-0.042613,1,1
10,1,-0.804543,0.030472,0.023218,0.116137,1,1
29,1,-0.821799,0.006343,-0.125077,-0.103013,1,1
7,1,-0.865627,0.053803,0.093218,0.065945,1,1
23,1,-0.928144,-0.081719,-0.161255,-0.033697,0,1
27,1,-0.776867,-0.099308,-0.098854,-0.096914,1,1
2,1,-0.800758,0.088796,0.189358,0.054950,1,1
39,1,-0.755090,-0.119996,-0.139540,-0.025833,1,1
35,1,-0.813556,0.015924,-0.092954,0.000216,1,1
32,1,-0.818227,0.008844,-0.108290,-0.022674,1,1
22,1,-0.863351,-0.020864,-0.024621,-0.027351,1,1
12,1,-0.744502,0.055652,0.128069,0.055501,1,1
53,2,-0.796493,0.023512,0.194460,0.084548,1,1
41,2,-0.811378,-0.012344,0.102763,0.079696,1,1
65,2,-0.884926,0.011790,-0.034022,-0.020654,1,1
74,2,-0.834954,-0.082030,-0.083072,-0.047247,1,1
60,2,-0.710761,-0.041202,-0.169232,-0.092786,1,1
54,2,-0.892870,-0.013136,0.183047,0.000796,1,1
78,2,-0.693568,-0.042917,-0.076466,-0.015718,1,1
55,2,-0.814774,0.016731,0.063484,0.058943,1,1
44,2,-0.830640,-0.002481,0.149729,0.098190,1,1
42,2,-0.873510,0.106261,0.087341,0.128836,1,0
58,2,-0.814872,0.041819,0.132374,-0.012553,1,1
66,2,-0.904604,0.033226,-0.025494,0.014806,1,1
48,2,-0.817707,-0.111616,0.145724,0.062883,1,1
70,2,-0.790832,-0.005913,-0.060194,-0.013750,1,1
75,2,-0.810080,-0.143454,-0.089559,-0.090429,1,1
62,2,-0.810223,-0.090818,-0.080782,-0.071084,1,1
67,2,-0.829313,-0.011367,-0.083873,0.007991,1,1
61,2,-0.717677,0.000387,-0.047090,-0.053863,1,1
59,2,-0.776395,-0.013399,0.120046,0.037117,1,1
51,2,-0.775058,0.091833,0.069637,0.112044,1,1
56,2,-0.874717,0.048248,0.093618,0.041208,1,1
69,2,-0.830285,-0.084939,-0.099713,-0.117753,1,1
76,2,-0.772921,-0.050084,-0.022649,-0.057855,1,1
49,2,-0.742811,-0.039953,0.140673,0.109473,1,1
52,2,-0.778301,0.035945,0.179989,0.054704,1,1
79,2,-0.853325,-0.060181,-0.109185,0.085651,1,1
46,2,-0.878912,0.084762,0.086119,0.134854,1,0
71,2,-0.750881,-0.031183,-0.132146,0.041135,1,1
64,2,-0.818842,-0.000568,-0.047070,-0.006536,1,1
73,2,-0.740433,-0.073780,-0.043964,0.013934,1,1
50,2,-0.825652,-0.066263,0.173819,0.096105,1,1
45,2,-0.780984,0.034733,0.094459,0.091644,1,1
72,2,-0.871083,-0.064959,-0.172913,0.047884,1,1
77,2,-0.848815,-0.019139,-0.033939,0.055678,1,1
40,2,-0.782539,-0.057583,0.073338,0.133472,1,1
68,2,-0.854294,0.004963,-0.134586,-0.049908,1,1
43,2,-0.943867,-0.064619,0.065095,0.048661,1,1
47,2,-0.851586,0.031203,0.134073,0.023024,1,1
57,2,-0.813501,0.069734,0.152282,0.111921,1,1
63,2,-0.826263,-0.068147,-0.115170,-0.059238,1,1
101,3,-0.833101,-0.082871,0.021768,-0.033755,1,1
117,3,-0.859745,0.048516,-0.012159,-0.041219,1,1
93,3,-0.791329,-0.060852,0.026351,0.015051,1,1
116,3,-0.836922,-0.120924,-0.150424,-0.012604,1,1
107,3,-0.718132,-0.074632,-0.136487,-0.085348,1,1
113,3,-0.837246,-0.100301,-0.068543,0.010036,1,1
98,3,-0.865423,0.019256,0.113780,0.069896,1,1
115,3,-0.807145,-0.121652,-0.118547,-0.012299,1,1
108,3,-0.850839,0.044997,-0.165894,0.022013,1,1
86,3,-0.825008,0.018954,0.059085,0.120210,1,1
90,3,-0.928521,-0.054934,0.051472,0.114332,1,1
88,3,-0.750478,0.027962,0.115101,0.030276,1,1
82,3,-0.833289,-0.078860,0.141104,0.045781,1,1
80,3,-0.764964,-0.053297,0.164118,-0.024144,1,1
81,3,-0.791052,0.057372,0.092716,0.069692,1,1
91,3,-0.815784,-0.034605,0.099490,0.037462,1,1
96,3,-0.849872,-0.013954,0.136050,0.143950,1,1
92,3,-0.783571,0.034453,0.089193,0.138379,1,1
102,3,-0.848412,-0.071265,-0.052539,-0.056588,1,1
89,3,-0.844424,-0.018633,0.156333,0.055253,1,1
87,3,-0.821491,-0.047373,0.056484,0.006886,1,1
110,3,-0.734135,-0.005205,-0.116839,-0.009215,1,1
95,3,-0.753488,0.040943,0.170621,0.065425,1,1
104,3,-0.746021,-0.072643,-0.107731,-0.075325,1,1
100,3,-0.758997,-0.134208,-0.147167,-0.067846,1,1
112,3,-0.703467,0.024794,-0.153460,-0.017292,1,1
111,3,-0.749881,-0.023410,-0.094862,-0.108809,1,1
106,3,-0.798727,-0.092645,-0.077160,-0.114280,1,1
97,3,-0.811982,-0.056410,0.210582,0.143952,1,1
84,3,-0.691097,-0.040730,0.056892,0.130462,1,1
94,3,-0.824270,0.030610,0.106278,0.166164,1,1
105,3,-0.815394,-0.087840,0.011995,-0.066870,1,1
103,3,-0.811955,-0.095548,-0.144076,-0.010543,1,1
119,3,-0.820688,-0.104308,-0.164705,-0.060106,1,1
83,3,-0.910945,0.023617,-0.024107,0.065048,1,1
109,3,-0.935354,-0.028129,-0.052601,-0.001000,1,1
85,3,-0.765113,0.050213,0.195490,0.059331,1,1
118,3,-0.789463,-0.097397,-0.178820,-0.034989,1,1
99,3,-0.826797,-0.019495,0.084733,0.064573,1,1
114,3,-0.797596,-0.080350,-0.098629,-0.092591,1,1
120,4,-0.828566,-0.042681,0.179891,0.081384,1,1
146,4,-0.625706,-0.030780,-0.045490,-0.035548,0,1
145,4,-0.735323,-0.048013,-0.141437,-0.017016,1,1
131,4,-0.815138,0.065053,0.145939,0.113925,1,1
122,4,-0.754782,0.002124,0.143828,0.092524,1,1
143,4,-0.832782,-0.067459,-0.043625,-0.005310,1,1
157,4,-0.857676,-0.079084,-0.187958,-0.022358,1,1
133,4,-0.787758,0.012277,0.103475,0.075255,1,1
142,4,-0.871196,-0.072507,-0.075493,0.019513,1,1
144,4,-0.922728,0.027869,-0.067361,-0.108767,1,1
139,4,-0.837887,0.006752,0.135292,-0.007808,1,1
134,4,-0.765623,-0.001015,0.117285,0.042344,1,1
147,4,-0.799307,-0.000197,-0.012111,0.025705,1,1
130,4,-0.836493,0.026724,0.090833,0.060119,1,1
152,4,-0.727308,-0.081403,-0.058538,0.038947,1,1
155,4,-0.746466,-0.051353,-0.148185,-0.116781,1,1
151,4,-0.781016,-0.073562,-0.145813,-0.060046,1,1
156,4,-0.797192,-0.067897,-0.153062,-0.064646,1,1
129,4,-0.833323,-0.056795,0.110020,0.104666,1,1
153,4,-0.799037,-0.006101,-0.050607,-0.062757,1,1
138,4,-0.825110,-0.038283,0.177354,0.055535,1,1
148,4,-0.824875,-0.020705,-0.113683,-0.026453,1,1
140,4,-0.865534,-0.023357,-0.092285,-0.000915,1,1
137,4,-0.761080,-0.027477,0.098649,0.101230,1,1
124,4,-0.842970,0.012391,0.124179,0.038696,1,1
132,4,-0.746523,0.030785,0.092619,0.039687,1,1
149,4,-0.849584,-0.014102,-0.175017,-0.050971,1,1
125,4,-0.738914,0.007195,0.072812,0.060178,1,1
135,4,-0.802442,0.011453,0.187507,0.146138,1,1
128,4,-0.874231,-0.081121,0.191448,0.133627,1,1
141,4,-0.839858,-0.131788,-0.024838,-0.033292,1,1
136,4,-0.718503,-0.035246,0.109501,-0.027591,1,1
127,4,-0.878329,0.042738,0.101981,0.098412,1,1
159,4,-0.776471,-0.066307,-0.114704,-0.022744,1,1
126,4,-0.800398,-0.022804,0.153409,0.155812,1,1
150,4,-0.771320,0.014573,-0.105655,-0.046348,1,1
123,4,-0.772607,0.051170,0.192204,0.129736,1,1
158,4,-0.778928,-0.144758,-0.104619,0.019287,1,1
121,4,-0.871992,0.023332,0.088388,0.077432,1,1
154,4,-0.810926,-0.037452,-0.036204,-0.091557,1,1
177,5,-0.781968,0.020723,0.094616,0.136637,1,1
160,5,-0.762486,0.148942,0.158577,0.101249,1,0
181,5,-0.720137,-0.084812,-0.077898,-0.033586,1,1
185,5,-0.794446,-0.063237,-0.101036,-0.072649,1,1
162,5,-0.802506,0.034801,0.182180,0.135772,1,1
171,5,-0.794634,0.047155,0.177715,0.035796,1,1
184,5,-0.821031,-0.161861,-0.061430,-0.072535,0,1
180,5,-0.684580,-0.082332,-0.130815,0.020009,1,1
199,5,-0.833738,-0.084633,-0.084937,0.014530,1,1
161,5,-0.834055,0.017648,0.216455,0.033995,1,1
179,5,-0.758580,-0.024809,0.031034,0.102952,1,1
163,5,-0.868359,0.024419,0.108609,0.143560,1,1
174,5,-0.821247,0.104196,0.116096,0.129418,1,0
190,5,-0.692337,-0.136608,-0.129798,0.014995,0,1
172,5,-0.803515,0.037521,0.137305,0.075463,1,1
173,5,-0.862299,0.001393,0.119765,0.093897,1,1
189,5,-0.800069,-0.111691,-0.106860,-0.028157,1,1
193,5,-0.766118,-0.051933,-0.138353,-0.052452,1,1
168,5,-0.790417,0.078629,0.094839,-0.001451,1,1
183,5,-0.793141,-0.114709,-0.018458,-0.001633,1,1
170,5,-0.721486,0.020762,0.107809,0.020635,1,1
192,5,-0.780986,-0.123225,-0.122050,0.005291,1,1
186,5,-0.766410,-0.058398,-0.099031,0.020825,1,1
169,5,-0.821910,0.062096,0.165012,0.053433,1,1
197,5,-0.787812,-0.116332,-0.021902,-0.027478,1,1
164,5,-0.824522,-0.024897,0.204420,-0.034013,1,1
196,5,-0.726412,0.026371,-0.094968,0.049299,1,1
178,5,-0.859230,0.010866,0.133265,0.063730,1,1
191,5,-0.807935,-0.042459,-0.135041,0.056829,1,1
198,5,-0.751765,-0.113117,-0.079690,-0.034737,1,1
176,5,-0.818646,-0.013874,0.090560,0.094828,1,1
166,5,-0.788658,-0.015382,0.116438,0.061980,1,1
182,5,-0.781047,-0.093445,-0.218109,-0.054111,1,1
187,5,-0.797766,-0.062410,-0.045585,0.006368,1,1
195,5,-0.864371,0.008527,-0.037466,-0.039160,1,1
167,5,-0.815520,0.047683,0.016763,0.076177,1,1
188,5,-0.868902,0.000383,-0.195259,-0.023761,1,1
165,5,-0.826441,-0.057988,0.090263,0.096662,1,1
194,5,-0.765022,-0.066092,-0.029950,-0.152428,1,1
175,5,-0.759363,-0.054408,0.060784,0.032389,1,1
203,6,-0.751548,-0.020524,0.101555,0.013514,1,1
213,6,-0.759246,-0.016033,0.134539,0.098137,1,1
235,6,-0.897575,-0.073780,-0.086437,0.004177,1,1
215,6,-0.761209,-0.090405,0.123580,0.144877,1,1
228,6,-0.801426,-0.096385,-0.078403,0.048083,1,1
212,6,-0.728947,0.003943,0.161094,0.087884,1,1
238,6,-0.734441,-0.037602,-0.145284,0.012126,1,1
232,6,-0.880806,-0.065367,-0.039250,-0.103174,1,1
233,6,-0.921118,0.018544,-0.165314,-0.027258,1,1
218,6,-0.834273,0.004574,0.127892,0.074837,1,1
211,6,-0.928451,-0.069930,0.058544,0.048523,1,1
225,6,-0.757215,-0.085362,-0.060079,0.095495,1,1
239,6,-0.756263,-0.140954,-0.124255,-0.082956,1,1
217,6,-0.789941,0.059176,0.090180,0.082781,1,1
227,6,-0.803170,-0.097473,-0.079806,-0.008244,1,1
208,6,-0.764828,-0.035392,0.168616,0.091450,1,1
236,6,-0.861283,-0.086932,-0.052731,0.000815,1,1
209,6,-0.866264,0.068226,0.125094,0.150593,1,1
205,6,-0.760682,0.006631,0.161602,0.097162,1,1
214,6,-0.683287,-0.097898,0.169947,0.112027,1,1
204,6,-0.725527,-0.050233,0.147485,0.168547,1,1
226,6,-0.742755,-0.101477,-0.022487,0.022707,1,1
223,6,-0.821627,-0.030567,-0.130486,0.059326,1,1
231,6,-0.746827,-0.033492,-0.083330,-0.103988,1,1
200,6,-0.810832,0.043649,0.179597,0.088676,1,1
219,6,-0.744765,-0.015731,0.105670,0.044056,1,1
216,6,-0.795078,0.060070,0.159079,0.034014,1,1
222,6,-0.831678,0.000531,-0.138550,0.028508,1,1
221,6,-0.763773,0.055962,-0.007791,-0.015633,1,1
207,6,-0.802201,-0.012909,0.152993,-0.024175,1,1
234,6,-0.805127,-0.027199,-0.079106,0.050740,1,1
229,6,-0.778089,-0.025880,-0.094612,0.017436,1,1
220,6,-0.800284,-0.027845,-0.136537,0.012658,1,1
230,6,-0.773979,-0.063305,-0.056792,0.005707,1,1
201,6,-0.788169,-0.030614,0.025796,0.110831,1,1
206,6,-0.750639,-0.020723,-0.001750,0.141027,1,1
210,6,-0.816357,-0.035477,0.142238,0.110658,1,1
202,6,-0.827136,0.004739,0.253909,0.053806,1,1
224,6,-0.727343,-0.030194,-0.128695,-0.016442,1,1
237,6,-0.857805,-0.068940,-0.117375,-0.077250,1,1
274,7,-0.753025,-0.110703,-0.132820,0.008230,1,1
251,7,-0.794466,-0.027853,0.078007,0.017694,1,1
276,7,-0.776538,0.017416,-0.130823,-0.104583,1,1
265,7,-0.808043,0.092267,-0.038688,-0.056983,1,1
272,7,-0.779874,-0.054863,-0.085026,0.027111,1,1
243,7,-0.718739,-0.016298,0.045011,0.091764,1,1
264,7,-0.786764,-0.074237,-0.110639,0.027530,1,1
269,7,-0.824226,-0.108886,-0.175787,0.003819,1,1
270,7,-0.814686,-0.098526,-0.143334,-0.006578,1,1
279,7,-0.772952,-0.062730,-0.100672,-0.104614,1,1
241,7,-0.873873,-0.021061,0.223254,0.004963,1,1
252,7,-0.872983,-0.039900,0.093800,0.107405,1,1
248,7,-0.771014,-0.024216,0.065037,0.038950,1,1
275,7,-0.794930,0.009607,-0.085762,-0.058837,1,1
255,7,-0.775632,0.024499,0.126732,0.110346,1,1
250,7,-0.786276,0.126513,0.249605,0.144340,1,0
249,7,-0.726809,-0.076898,0.117871,0.084607,1,1
277,7,-0.803129,-0.069411,-0.095308,-0.014253,1,1
266,7,-0.789480,-0.012216,-0.008954,-0.022758,1,1
263,7,-0.760279,-0.127282,-0.005292,-0.006241,1,1
244,7,-0.764533,0.077493,0.042616,-0.003818,1,1
273,7,-0.836035,-0.054293,-0.047898,-0.106251,1,1
271,7,-0.752629,0.002597,0.011832,-0.132395,1,1
278,7,-0.854277,-0.119624,-0.144042,0.021523,1,1
259,7,-0.789377,-0.001031,0.091002,0.137504,1,1
268,7,-0.780915,-0.035966,-0.080668,-0.016395,1,1
242,7,-0.777234,0.040299,0.220171,0.065601,1,1
260,7,-0.828891,-0.050581,-0.028120,-0.043410,1,1
258,7,-0.791357,-0.011916,0.141660,0.120459,1,1
240,7,-0.803032,-0.014040,0.192955,0.036471,1,1
257,7,-0.671108,-0.033997,0.130487,0.045727,1,1
247,7,-0.806652,-0.093979,0.131922,0.074246,1,1
262,7,-0.862217,-0.058496,-0.121863,0.026984,1,1
245,7,-0.810921,-0.032527,0.091253,0.054026,1,1
267,7,-0.734438,0.010902,-0.112285,-0.079726,1,1
254,7,-0.815221,-0.033709,0.111723,0.069856,1,1
253,7,-0.809445,-0.012252,0.115161,0.019892,1,1
256,7,-0.789696,0.038530,0.074566,0.028721,1,1
261,7,-0.772893,0.011976,-0.076423,-0.014946,1,1
246,7,-0.677566,-0.006061,0.118416,0.104312,1,1
303,8,-0.739639,0.047808,-0.191301,-0.060195,1,1
312,8,-0.863175,-0.105024,-0.066284,-0.068599,1,1
302,8,-0.771226,-0.024378,-0.148230,0.003422,1,1
284,8,-0.800062,-0.105838,0.145404,0.098320,1,1
311,8,-0.643171,-0.143944,-0.015038,-0.058626,0,1
307,8,-0.726020,-0.066692,-0.100389,0.004578,1,1
280,8,-0.715351,-0.023292,0.148196,0.052916,1,1
283,8,-0.799776,0.001869,0.146830,0.072646,1,1
319,8,-0.813565,-0.099087,-0.081878,0.068978,1,1
293,8,-0.797659,0.011166,0.158078,0.069182,1,1
313,8,-0.882719,-0.077412,-0.088756,0.022329,1,1
285,8,-0.792978,0.128154,0.100231,0.054325,1,0
288,8,-0.823313,-0.005986,0.048555,0.038049,1,1
286,8,-0.747154,-0.006523,0.120764,0.058569,1,1
308,8,-0.830482,-0.002093,-0.102224,0.004113,1,1
294,8,-0.788802,0.045828,0.102673,0.130293,1,1
301,8,-0.864764,-0.053307,-0.082366,0.025861,1,1
309,8,-0.762501,-0.077795,-0.157131,-0.004700,1,1
292,8,-0.786775,-0.007578,0.199312,0.109745,1,1
298,8,-0.843202,0.016532,0.157098,0.097025,1,1
299,8,-0.891367,-0.026900,0.067771,0.144803,1,1
304,8,-0.790073,-0.062030,-0.085316,-0.040863,1,1
318,8,-0.730728,-0.048572,-0.162026,-0.048581,1,1
282,8,-0.798406,-0.023312,0.188793,-0.003766,1,1
289,8,-0.850156,-0.015541,0.145151,0.038298,1,1
296,8,-0.727191,0.002177,0.126629,0.135429,1,1
317,8,-0.787654,-0.009941,-0.026502,0.069086,1,1
300,8,-0.778630,-0.036195,-0.117084,0.037256,1,1
295,8,-0.835544,0.034097,0.099340,0.011214,1,1
291,8,-0.833087,-0.002179,0.124942,0.145447,1,1
287,8,-0.748923,-0.061730,0.134404,0.055048,1,1
297,8,-0.870439,0.038746,0.125057,0.128809,1,1
314,8,-0.841390,-0.128286,-0.094649,-0.059761,1,1
305,8,-0.745394,-0.107442,-0.112482,-0.020788,1,1
306,8,-0.838954,-0.165529,0.027771,-0.112484,0,1
281,8,-0.749602,-0.057318,0.198858,0.048668,1,1
316,8,-0.797536,-0.064000,-0.075075,-0.041572,1,1
315,8,-0.731301,-0.190774,-0.148449,0.016292,0,1
310,8,-0.805173,-0.006653,-0.084068,0.023545,1,1
290,8,-0.767353,-0.126093,0.118962,0.057198,1,1
324,9,-0.822551,0.056981,0.163461,0.006277,1,1
347,9,-0.758403,-0.081113,-0.075382,-0.029498,1,1
326,9,-0.808773,0.013951,0.234951,-0.068053,1,1
350,9,-0.839916,-0.108972,-0.162057,-0.007075,1,1
354,9,-0.883193,-0.083680,-0.051311,0.060349,1,1
348,9,-0.704881,-0.087400,-0.075714,-0.046540,1,1
330,9,-0.825886,0.116241,0.188891,0.027122,1,0
320,9,-0.788547,-0.004324,0.154067,0.052794,1,1
331,9,-0.847074,-0.039039,0.126339,0.064436,1,1
339,9,-0.769288,-0.013145,0.160507,0.071087,1,1
336,9,-0.791649,-0.005173,0.111302,0.112026,1,1
353,9,-0.891560,0.040208,-0.088304,0.030171,1,1
344,9,-0.790506,-0.090020,0.022980,-0.065416,1,1
334,9,-0.780441,-0.027781,0.102454,0.056012,1,1
333,9,-0.829277,-0.057641,0.172402,0.096595,1,1
352,9,-0.784785,-0.113998,-0.080866,-0.016884,1,1
335,9,-0.797272,0.064389,0.119692,-0.047997,1,1
359,9,-0.910261,-0.022186,-0.103091,-0.056049,1,1
342,9,-0.699633,-0.000853,-0.123114,-0.053517,1,1
323,9,-0.761930,0.048524,0.151196,-0.022944,1,1
358,9,-0.790509,0.102470,-0.105571,0.013199,1,1
329,9,-0.775621,0.010860,0.262255,0.143142,1,1
328,9,-0.857261,-0.005781,0.006284,0.085659,1,1
349,9,-0.798393,-0.035078,-0.084387,0.009236,1,1
332,9,-0.797639,-0.075165,0.114963,0.124587,1,1
327,9,-0.846270,0.047157,0.097952,0.173932,1,1
325,9,-0.731850,0.010136,0.040222,0.091956,1,1
322,9,-0.805258,-0.027295,0.218058,0.111324,1,1
355,9,-0.775871,-0.040570,-0.064535,-0.052520,1,1
338,9,-0.716587,0.014985,0.076387,0.017528,1,1
321,9,-0.796462,-0.086446,0.089684,0.074977,1,1
357,9,-0.732951,-0.018285,-0.047608,-0.025936,1,1
341,9,-0.806167,0.034504,-0.065776,-0.074972,1,1
346,9,-0.800557,-0.007952,-0.138744,-0.064018,1,1
351,9,-0.733320,0.017489,-0.152084,0.013974,1,1
337,9,-0.751057,-0.020108,0.116200,0.146746,1,1
343,9,-0.804506,-0.076399,-0.007775,-0.075642,1,1
356,9,-0.730225,-0.024804,-0.028762,-0.003195,1,1
340,9,-0.784278,-0.084917,-0.116501,-0.026803,1,1
345,9,-0.762556,-0.064404,-0.095477,-0.113398,1,1
399,10,-0.812059,-0.036760,-0.056874,0.002130,1,1
376,10,-0.743851,-0.057003,0.153811,0.040941,1,1
384,10,-0.686690,-0.096309,-0.119917,-0.068736,1,1
386,10,-0.758694,-0.005172,-0.053646,-0.072406,1,1
368,10,-0.701821,-0.063448,0.052349,0.026242,1,1
388,10,-0.819599,0.073258,-0.102246,-0.017992,1,1
377,10,-0.815566,-0.017250,0.050377,0.104231,1,1
396,10,-0.796360,-0.013777,-0.092395,-0.015784,1,1
379,10,-0.827078,-0.044808,0.204918,0.019894,1,1
393,10,-0.830227,-0.090877,-0.116341,-0.004082,1,1
392,10,-0.816646,-0.007567,-0.044112,0.001481,1,1
367,10,-0.789281,0.043484,0.188357,0.063726,1,1
371,10,-0.850056,0.092733,0.010210,0.022383,1,0
366,10,-0.720052,0.053725,0.017306,0.038582,1,1
378,10,-0.792057,0.008733,0.131272,0.021141,1,1
375,10,-0.817141,-0.025293,0.117121,0.064518,1,1
374,10,-0.808193,-0.049058,0.086830,0.153020,1,1
394,10,-0.717598,-0.034881,-0.069975,-0.093193,1,1
364,10,-0.804563,0.072597,0.089729,0.013501,1,1
397,10,-0.750669,-0.207945,-0.032941,0.019176,0,1
387,10,-0.923479,-0.028709,-0.058319,0.002376,1,1
395,10,-0.806826,-0.082009,-0.148110,-0.065822,1,1
391,10,-0.802180,-0.085432,-0.076333,-0.007534,1,1
385,10,-0.757071,-0.004805,-0.043329,-0.024513,1,1
373,10,-0.886489,-0.056099,0.084295,0.048795,1,1
383,10,-0.845088,-0.061542,-0.053452,-0.040211,1,1
382,10,-0.849134,-0.040195,-0.128308,-0.100324,1,1
362,10,-0.762584,-0.007842,0.120723,0.048356,1,1
381,10,-0.824963,-0.017545,-0.095225,0.075114,1,1
398,10,-0.725368,-0.078784,-0.142422,-0.023878,1,1
370,10,-0.657498,0.027972,0.199174,0.070483,1,0
389,10,-0.783243,-0.111922,-0.042563,-0.026103,1,1
365,10,-0.821511,-0.037843,0.196189,0.058134,1,1
360,10,-0.851882,-0.016468,0.109360,0.109200,1,1
380,10,-0.687967,-0.063219,-0.076301,-0.052869,1,1
363,10,-0.765740,-0.095290,0.196166,0.024717,1,1
369,10,-0.745506,0.011254,0.234928,0.024152,1,1
372,10,-0.802252,0.012071,0.000368,-0.015644,1,1
390,10,-0.842840,-0.061934,-0.051340,0.000654,1,1
361,10,-0.808422,-0.043203,0.150625,0.052866,1,1
413,11,-0.821541,0.013755,0.125306,0.045000,1,1
402,11,-0.848961,-0.110105,0.162623,0.057435,1,1
423,11,-0.627242,0.006721,-0.211172,-0.050297,0,1
415,11,-0.848788,-0.001746,0.156177,0.098574,1,1
408,11,-0.683642,-0.033731,0.237010,0.063035,1,1
401,11,-0.720979,-0.089042,0.159087,0.080480,1,1
422,11,-0.862601,-0.028938,-0.039635,0.053870,1,1
419,11,-0.806358,-0.007215,0.168749,0.115840,1,1
428,11,-0.887530,-0.121630,-0.078278,-0.016390,0,1
406,11,-0.779168,0.009372,0.107742,0.023417,1,1
430,11,-0.771014,-0.052165,-0.156175,-0.010042,1,1
418,11,-0.743032,0.024498,0.118533,0.086269,1,1
432,11,-0.775575,-0.094573,-0.050689,-0.072651,1,1
437,11,-0.733982,0.004978,-0.091372,-0.051225,1,1
400,11,-0.788553,-0.042593,0.143544,0.101894,1,1
425,11,-0.727373,0.037036,-0.122553,-0.074272,1,1
438,11,-0.759658,-0.063620,-0.140154,0.071929,1,1
414,11,-0.733297,-0.009630,0.095878,0.017945,1,1
405,11,-0.767011,0.037532,0.162219,0.054873,1,1
431,11,-0.732236,-0.069174,-0.093605,0.024784,1,1
412,11,-0.759435,0.028231,0.108895,0.039391,1,1
420,11,-0.761410,-0.103429,-0.015591,-0.075678,1,1
426,11,-0.810711,-0.100777,-0.201517,-0.023267,1,1
436,11,-0.749911,-0.117052,-0.110262,-0.046848,1,1
407,11,-0.769212,-0.023583,0.145341,0.005178,1,1
435,11,-0.770955,-0.041483,0.058036,0.014399,1,1
433,11,-0.843894,-0.024372,-0.035706,-0.020059,1,1
404,11,-0.779748,-0.041341,0.174972,0.082358,1,1
409,11,-0.754998,0.012650,0.185670,0.052294,1,1
439,11,-0.872217,-0.045837,-0.062380,-0.010635,1,1
429,11,-0.791280,-0.026222,-0.060198,-0.035050,1,1
421,11,-0.812943,-0.102070,-0.100020,-0.028421,1,1
416,11,-0.756967,0.015178,0.153833,0.107329,1,1
410,11,-0.756779,-0.015911,0.167616,0.086720,1,1
424,11,-0.829040,-0.029468,-0.143438,0.016431,1,1
417,11,-0.758793,-0.063540,0.103790,0.010249,1,1
411,11,-0.780560,-0.068407,0.125211,0.033222,1,1
403,11,-0.843622,0.022804,0.075819,0.158591,1,1
427,11,-0.795561,0.052298,-0.050970,-0.035938,1,1
434,11,-0.748092,0.006036,-0.059074,-0.031422,1,1
475,12,-0.742193,0.027237,-0.050470,-0.041509,1,1
451,12,-0.779500,-0.050263,0.073761,-0.022429,1,1
447,12,-0.844508,-0.028579,0.106233,-0.000648,1,1
458,12,-0.818860,-0.019858,0.217132,0.027331,1,1
479,12,-0.769670,-0.058044,-0.045233,-0.028788,1,1
448,12,-0.679383,-0.044705,0.130534,0.093163,1,1
443,12,-0.720306,-0.067248,0.046422,0.033705,1,1
476,12,-0.822265,-0.038351,-0.075502,0.017806,1,1
465,12,-0.721032,-0.111523,-0.084976,-0.090769,1,1
456,12,-0.802619,0.051175,0.057091,-0.013346,1,1
442,12,-0.782348,0.002235,0.183519,0.107609,1,1
455,12,-0.735852,0.023757,0.077823,0.113571,1,1
474,12,-0.767414,0.003006,-0.114665,-0.062703,1,1
464,12,-0.727980,0.007738,-0.091351,-0.027146,1,1
449,12,-0.800570,-0.015742,0.052403,0.152566,1,1
471,12,-0.810246,-0.007762,-0.051316,0.002709,1,1
470,12,-0.768712,-0.068253,-0.004509,-0.015713,1,1
472,12,-0.740931,-0.104204,-0.120478,-0.015281,1,1
452,12,-0.861451,-0.005952,0.126206,0.058717,1,1
450,12,-0.798403,-0.039709,0.032637,0.110359,1,1
457,12,-0.815851,-0.025987,0.193157,0.105047,1,1
444,12,-0.769139,-0.006892,0.093985,0.052810,1,1
473,12,-0.750947,0.011716,-0.039962,-0.016594,1,1
468,12,-0.743368,-0.091563,-0.130893,-0.044999,1,1
454,12,-0.689528,0.009456,0.150462,0.017777,1,1
466,12,-0.758870,-0.024130,-0.147465,-0.078710,1,1
463,12,-0.805522,0.002639,-0.101247,-0.004487,1,1
478,12,-0.819259,-0.077797,-0.018158,-0.043353,1,1
462,12,-0.809897,-0.001251,-0.059421,-0.018923,1,1
460,12,-0.710824,-0.117947,-0.102767,-0.071447,1,1
446,12,-0.775211,-0.003650,0.089129,0.166322,1,1
445,12,-0.758366,-0.029098,0.095546,0.090075,1,1
453,12,-0.712858,0.009090,0.213071,0.046115,1,1
477,12,-0.757622,-0.035520,-0.178496,-0.072064,1,1
459,12,-0.883829,0.003911,0.151959,0.167712,1,1
461,12,-0.753013,-0.114382,-0.079057,-0.022656,1,1
441,12,-0.793740,-0.018587,0.153617,-0.010425,1,1
469,12,-0.803920,-0.062665,-0.165827,-0.012993,1,1
467,12,-0.744858,0.005900,-0.010202,-0.009765,1,1
440,12,-0.846724,0.045676,0.006170,0.073436,1,1
503,13,-0.650123,0.050943,-0.121028,-0.117940,0,1
499,13,-0.774256,0.022641,0.083009,0.167956,1,1
492,13,-0.770069,-0.022622,0.183251,0.063672,1,1
513,13,-0.826145,0.035004,-0.140123,-0.110094,1,1
518,13,-0.790566,-0.124751,-0.119886,-0.006368,1,1
506,13,-0.733116,-0.020735,-0.138662,0.017061,1,1
507,13,-0.759824,-0.045973,-0.051812,-0.012635,1,1
516,13,-0.810478,-0.062670,-0.070297,-0.032715,1,1
500,13,-0.845171,-0.010773,-0.043789,-0.040505,1,1
510,13,-0.758311,-0.079920,-0.107332,-0.000485,1,1
484,13,-0.864585,-0.030380,0.109128,0.089599,1,1
508,13,-0.824690,-0.056126,-0.131381,0.046315,1,1
497,13,-0.848691,0.054251,0.113238,0.050890,1,1
495,13,-0.744482,0.000542,0.040981,0.214145,1,1
494,13,-0.790094,-0.037154,0.178668,0.109073,1,1
501,13,-0.789302,-0.034793,-0.093445,-0.033769,1,1
488,13,-0.758860,0.002629,0.075653,0.043177,1,1
514,13,-0.738512,-0.077260,-0.099196,-0.103387,1,1
487,13,-0.815507,-0.000838,0.208020,0.011376,1,1
485,13,-0.857745,-0.009705,0.145878,0.044528,1,1
511,13,-0.808939,-0.049708,0.008803,-0.083181,1,1
493,13,-0.780857,-0.023862,0.239829,0.051523,1,1
491,13,-0.783670,-0.053397,0.111677,-0.000724,1,1
482,13,-0.753844,-0.013793,0.097226,0.154713,1,1
509,13,-0.783573,-0.021018,-0.157976,0.003545,1,1
517,13,-0.717162,-0.103962,-0.114560,-0.088325,1,1
502,13,-0.791623,-0.103767,-0.100986,-0.026419,1,1
498,13,-0.812272,0.002384,0.142646,0.131652,1,1
480,13,-0.824477,0.017396,0.155917,0.012680,1,1
496,13,-0.732326,0.001570,0.090487,-0.079422,1,1
481,13,-0.812618,0.004369,0.161357,0.143595,1,1
519,13,-0.799249,-0.018677,-0.060756,0.050771,1,1
504,13,-0.812938,-0.085109,-0.056182,-0.017917,1,1
489,13,-0.780889,-0.051615,0.056178,0.045501,1,1
512,13,-0.789449,-0.022577,-0.072671,-0.017539,1,1
515,13,-0.831291,-0.036840,-0.134126,-0.017789,1,1
490,13,-0.807994,0.038014,0.060145,0.094422,1,1
505,13,-0.810615,-0.126791,-0.103570,0.042977,1,1
483,13,-0.815785,-0.014377,0.050669,0.015119,1,1
486,13,-0.688501,0.113685,0.151144,0.120782,1,0
532,14,-0.877327,0.041553,0.061784,0.075324,1,1
556,14,-0.777530,-0.119951,-0.070897,-0.100701,1,1
546,14,-0.774698,0.034297,-0.038602,-0.010372,1,1
551,14,-0.838245,-0.017982,-0.028861,-0.103318,1,1
547,14,-0.737245,0.002215,-0.113268,-0.022516,1,1
536,14,-0.837168,-0.003802,0.137723,0.165227,1,1
557,14,-0.767408,0.008107,-0.095761,-0.064441,1,1
552,14,-0.827155,-0.033671,-0.118209,-0.118983,1,1
555,14,-0.692687,0.003721,-0.127156,-0.088300,1,1
543,14,-0.711565,-0.042635,-0.077816,-0.024323,1,1
524,14,-0.932927,-0.019489,0.139838,0.054798,1,0
541,14,-0.724151,-0.022186,-0.109812,-0.054829,1,1
558,14,-0.866885,-0.047976,-0.095588,-0.073848,1,1
521,14,-0.789739,0.094239,0.112561,0.059803,1,1
533,14,-0.741680,-0.022127,0.109527,0.009620,1,1
526,14,-0.774863,0.060884,0.153819,0.104417,1,1
522,14,-0.789911,0.020549,0.120003,0.083109,1,1
530,14,-0.775833,-0.029742,0.120088,0.037414,1,1
527,14,-0.840678,0.064926,0.141199,0.080395,1,1
539,14,-0.762600,0.051845,0.197037,0.091661,1,1
535,14,-0.749921,-0.058762,0.197414,-0.032534,1,1
540,14,-0.848351,-0.025992,-0.036976,-0.006149,1,1
550,14,-0.817800,-0.072041,-0.138317,0.021676,1,1
525,14,-0.804259,-0.011342,0.127707,0.072743,1,1
553,14,-0.776913,-0.023348,-0.159954,0.017949,1,1
520,14,-0.715651,0.060511,0.129416,0.065762,1,1
529,14,-0.869781,0.064576,0.065956,0.069341,1,1
559,14,-0.785163,-0.115534,-0.026164,0.066947,1,1
548,14,-0.736965,-0.042112,-0.098704,0.056434,1,1
542,14,-0.780923,-0.061148,-0.054235,-0.081851,1,1
549,14,-0.720761,-0.033620,-0.056576,0.023747,1,1
545,14,-0.792602,-0.061980,-0.106804,-0.012700,1,1
534,14,-0.782503,0.001066,0.172657,-0.005092,1,1
523,14,-0.795942,-0.004169,0.144735,-0.005981,1,1
531,14,-0.734963,0.042270,0.141722,0.010070,1,1
538,14,-0.783147,0.059319,0.164757,0.133917,1,1
528,14,-0.783715,0.053602,0.105736,-0.022662,1,1
537,14,-0.782417,0.069709,0.164397,0.010986,1,1
544,14,-0.823330,-0.124104,-0.074568,-0.000241,1,1
554,14,-0.753657,0.016874,-0.073895,-0.054437,1,1
584,15,-0.834486,0.012486,0.025964,-0.125353,1,1
598,15,-0.713828,-0.136097,-0.118278,-0.036036,0,1
583,15,-0.723337,-0.011869,-0.129735,-0.001742,1,1
564,15,-0.812967,0.029567,0.051583,-0.017923,1,1
579,15,-0.800454,0.050841,0.098474,0.125206,1,1
565,15,-0.751650,0.027909,0.059254,0.122152,1,1
589,15,-0.842263,-0.120680,-0.084026,0.023026,1,1
590,15,-0.709173,-0.119975,-0.149436,-0.062363,1,1
585,15,-0.777836,-0.038189,-0.108392,-0.045979,1,1
586,15,-0.806827,-0.037190,-0.082469,0.007361,1,1
570,15,-0.787215,0.031956,0.072061,0.075970,1,1
591,15,-0.812409,0.005599,-0.109990,-0.110355,1,1
581,15,-0.782596,-0.051692,-0.078524,0.014272,1,1
599,15,-0.897997,-0.081954,-0.151576,0.003498,1,1
588,15,-0.737703,-0.112580,-0.098392,0.012885,1,1
574,15,-0.840800,-0.033317,0.154795,0.115210,1,1
561,15,-0.778243,-0.000474,0.173920,0.082004,1,1
569,15,-0.712820,-0.094501,0.155929,0.011925,1,1
566,15,-0.841750,-0.034977,0.098864,0.090618,1,1
571,15,-0.774245,-0.036843,0.123023,0.003200,1,1
563,15,-0.779316,0.047595,0.097342,0.017775,1,1
577,15,-0.729752,0.029634,0.195022,0.059113,1,1
597,15,-0.805685,-0.026720,-0.027654,-0.016131,1,1
576,15,-0.741706,0.034786,0.086086,0.097088,1,1
568,15,-0.823870,-0.020281,0.162117,-0.063724,1,1
562,15,-0.778023,0.069109,0.086621,0.176017,1,1
573,15,-0.728057,0.054668,0.149442,0.092668,1,1
560,15,-0.787464,-0.056046,0.177264,0.029777,1,1
582,15,-0.820711,0.038721,-0.156850,0.041267,1,1
572,15,-0.780696,0.062271,0.124304,0.069771,1,1
567,15,-0.826084,0.037909,0.180636,0.035389,1,1
594,15,-0.664883,0.016515,-0.071069,-0.107953,1,1
595,15,-0.810930,0.020818,-0.090000,-0.052614,1,1
596,15,-0.718318,0.007677,-0.115065,-0.032331,1,1
580,15,-0.796427,-0.026878,-0.006143,-0.024814,1,1
575,15,-0.765278,-0.027186,0.117333,0.026329,1,1
593,15,-0.829365,-0.027757,-0.098494,0.011987,1,1
592,15,-0.759311,-0.004575,-0.115740,-0.041623,1,1
587,15,-0.768503,-0.012550,-0.081414,-0.016984,1,1
578,15,-0.778695,0.043957,0.170513,0.171848,1,1
601,16,-0.725976,0.099158,0.018651,0.029816,1,0
616,16,-0.733582,0.012359,0.189184,0.068397,1,1
637,16,-0.845444,-0.102675,0.146026,0.067189,1,1
603,16,-0.838342,0.053488,0.042715,0.058825,1,1
611,16,-0.785795,0.058372,0.039258,0.014717,1,1
618,16,-0.812437,-0.006092,0.195711,0.034487,1,1
606,16,-0.765564,-0.087824,0.106036,0.101837,1,1
622,16,-0.840497,-0.015666,0.151573,0.057536,1,1
633,16,-0.868129,-0.034775,0.159629,-0.006950,1,1
636,16,-0.748357,-0.060510,0.092687,0.005666,1,1
638,16,-0.755053,-0.063316,0.005267,0.003634,1,1
609,16,-0.749310,-0.052160,0.139845,0.042349,1,1
617,16,-0.836184,-0.076378,0.154508,0.105208,1,1
626,16,-0.764723,-0.040048,0.148607,0.069493,1,1
605,16,-0.737977,0.010483,0.139982,0.054997,1,1
614,16,-0.737534,0.072120,0.151586,0.027517,1,1
613,16,-0.763302,-0.046208,0.218341,0.048960,1,1
628,16,-0.726279,-0.069729,0.128454,0.032037,1,1
602,16,-0.758814,-0.021953,0.142161,0.127777,1,1
604,16,-0.744447,-0.007812,0.100618,0.094346,1,1
607,16,-0.815945,0.059466,0.126163,0.093678,1,1
621,16,-0.704898,-0.018873,0.169521,0.191712,1,1
610,16,-0.794963,0.065561,0.064796,-0.011513,1,1
608,16,-0.849275,-0.030312,0.073095,0.141470,1,1
624,16,-0.725720,0.003311,0.065320,0.071090,1,1
600,16,-0.772390,0.026588,0.061851,0.034628,1,1
639,16,-0.800580,-0.056866,0.067505,0.072335,1,1
635,16,-0.776528,-0.047891,0.199583,0.040685,1,1
629,16,-0.859485,-0.023798,0.120533,0.089245,1,1
619,16,-0.761274,0.009797,0.222336,0.098081,1,1
632,16,-0.749852,-0.060462,0.054829,0.025516,1,1
615,16,-0.830270,0.036142,0.142659,0.094749,1,1
631,16,-0.779286,0.019410,0.069037,0.072850,1,1
620,16,-0.743686,-0.079806,0.119369,0.049736,1,1
612,16,-0.767277,0.026150,0.059406,0.060604,1,1
630,16,-0.794963,-0.017742,0.135062,0.108295,1,1
625,16,-0.848242,-0.084169,0.017048,0.092021,1,1
623,16,-0.771064,-0.106650,0.047045,0.032110,1,1
627,16,-0.751421,-0.032035,0.023023,-0.017917,1,1
634,16,-0.793677,-0.027911,0.133566,0.113485,1,1
648,17,-0.751893,0.094298,0.061717,0.058763,1,1
670,17,-0.713816,-0.096918,0.098390,0.140179,1,1
643,17,-0.875195,-0.006340,0.133646,0.068140,1,1
642,17,-0.809644,0.017681,0.104179,0.066358,1,1
651,17,-0.823199,0.045455,0.017439,-0.008921,1,1
649,17,-0.790772,0.015572,0.172197,0.030970,1,1
671,17,-0.903040,-0.063887,0.169010,0.135476,1,1
663,17,-0.707239,-0.063428,0.165883,-0.001192,1,1
641,17,-0.754699,0.036203,0.159248,0.052602,1,1
664,17,-0.758845,-0.132454,0.136049,0.120441,1,1
674,17,-0.813405,-0.040713,0.034021,0.029108,1,1
655,17,-0.772177,0.015242,0.170125,0.023074,1,1
661,17,-0.809125,0.007652,0.092455,0.114654,1,1
659,17,-0.812538,-0.042843,0.091529,0.021852,1,1
667,17,-0.764681,-0.088651,0.045814,0.112144,1,1
645,17,-0.785608,-0.051953,0.242531,0.132984,1,1
675,17,-0.761241,-0.020519,0.153958,0.033012,1,1
669,17,-0.720561,-0.075218,0.102804,0.069621,1,1
658,17,-0.758253,-0.086888,0.097834,0.044267,1,1
656,17,-0.773775,-0.074865,0.154579,-0.030654,1,1
657,17,-0.724204,-0.006840,0.195595,0.095176,1,1
676,17,-0.739887,0.051879,-0.012991,0.049687,1,1
665,17,-0.771111,0.029475,0.106424,0.019473,1,1
666,17,-0.680089,-0.000137,0.147487,0.091177,1,1
647,17,-0.856366,0.091006,0.122419,0.155498,1,0
644,17,-0.713705,-0.042734,0.144557,0.073082,1,1
654,17,-0.748387,-0.006102,0.114363,0.037282,1,1
673,17,-0.709372,-0.100341,-0.005860,0.060325,1,1
677,17,-0.719989,-0.072600,0.120202,0.098573,1,1
660,17,-0.771041,0.016821,0.174790,0.028566,1,1
668,17,-0.685497,-0.132603,-0.011635,0.127784,0,1
679,17,-0.788129,0.009520,0.152328,0.046021,1,1
653,17,-0.789267,-0.051583,0.206273,0.051645,1,1
662,17,-0.793899,0.016646,0.103253,0.085614,1,1
678,17,-0.786586,-0.097237,0.079825,0.128471,1,1
652,17,-0.734711,0.043561,0.164248,0.090136,1,1
646,17,-0.855828,0.027692,0.104439,0.035428,1,1
672,17,-0.685392,-0.024001,0.065021,0.057731,1,1
640,17,-0.812626,-0.019752,0.140008,0.144266,1,1
650,17,-0.818225,-0.007529,0.118296,0.039919,1,1
703,18,-0.861089,-0.099597,0.112161,0.085863,1,1
687,18,-0.822175,-0.006562,0.048488,0.015174,1,1
706,18,-0.786857,-0.070946,0.116017,0.066999,1,1
705,18,-0.804313,0.036229,0.205222,0.138000,1,1
701,18,-0.836356,-0.054937,0.113020,0.078800,1,1
702,18,-0.779747,-0.026052,0.107005,0.080249,1,1
688,18,-0.781739,-0.015081,0.123103,0.161915,1,1
693,18,-0.752789,0.051573,0.197899,0.019821,1,1
689,18,-0.756962,-0.029366,0.109526,0.000176,1,1
716,18,-0.785354,-0.059630,0.075747,0.010804,1,1
686,18,-0.787460,0.009255,0.197120,0.003928,1,1
709,18,-0.756242,-0.012212,0.046843,-0.017993,1,1
698,18,-0.803577,0.006388,0.059192,0.055883,1,1
715,18,-0.777329,-0.029839,0.151479,0.094459,1,1
695,18,-0.692482,0.043351,0.118199,0.095574,1,1
680,18,-0.760532,-0.047078,0.183880,0.032725,1,1
682,18,-0.713831,-0.098871,0.094713,0.019955,1,1
710,18,-0.889635,-0.056444,0.060867,0.091928,1,1
696,18,-0.788950,-0.007837,0.139605,0.084871,1,1
697,18,-0.852998,0.003439,0.156561,0.081576,1,1
699,18,-0.814079,0.027137,0.082509,0.048810,1,1
714,18,-0.912547,-0.079262,0.139438,0.106873,1,1
718,18,-0.705609,-0.050627,0.072093,0.090901,1,1
707,18,-0.676706,-0.132170,0.014562,0.076833,0,1
708,18,-0.801487,-0.004082,0.097487,0.088114,1,1
712,18,-0.690572,0.053103,0.119578,0.007636,1,1
719,18,-0.740677,0.025117,0.142362,0.011062,1,1
690,18,-0.776642,0.044208,0.162494,0.060054,1,1
694,18,-0.749586,-0.004942,0.140721,0.088272,1,1
717,18,-0.801774,-0.047733,0.082313,0.104483,1,1
691,18,-0.827250,-0.015416,0.090933,0.078527,1,1
683,18,-0.815210,-0.033185,0.112629,0.095105,1,1
684,18,-0.814321,-0.013029,0.145497,0.022714,1,1
713,18,-0.694855,-0.065928,0.062494,0.039826,1,1
681,18,-0.818946,0.051501,0.121351,0.161705,1,1
692,18,-0.872075,-0.003606,0.167015,0.053427,1,1
685,18,-0.787192,0.013459,0.160150,0.119285,1,1
711,18,-0.784851,-0.047099,0.038112,0.126484,1,1
700,18,-0.744149,-0.077359,0.119746,0.126094,1,1
704,18,-0.840776,-0.137104,0.164835,-0.057859,1,1
729,19,-0.801480,-0.028739,0.042198,0.031842,1,1
720,19,-0.869169,0.037436,0.193318,0.031299,1,1
744,19,-0.751996,-0.093396,0.084875,0.109205,1,1
746,19,-0.718339,-0.144699,0.064066,0.071986,0,1
741,19,-0.838667,-0.033017,0.061161,0.096348,1,1
732,19,-0.852213,0.035540,0.094756,0.170760,1,1
745,19,-0.732210,-0.090902,0.070343,0.001720,1,1
743,19,-0.861108,-0.092903,0.049883,0.132590,1,1
730,19,-0.822150,-0.034362,0.240319,0.120613,1,1
739,19,-0.821701,0.052578,0.053995,0.085178,1,1
747,19,-0.864441,-0.034357,0.168282,0.021088,1,1
735,19,-0.844776,-0.023299,0.177957,0.079776,1,1
727,19,-0.837575,-0.021019,0.119602,0.071469,1,1
740,19,-0.752295,-0.004115,0.061224,0.141109,1,1
736,19,-0.753984,0.015167,0.115441,0.123426,1,1
738,19,-0.759015,-0.026221,0.036859,0.175138,1,1
759,19,-0.750712,-0.095470,0.077130,0.014564,1,1
723,19,-0.839156,-0.022904,0.159859,0.018884,1,1
737,19,-0.897129,-0.058541,0.117609,0.029252,1,1
749,19,-0.744603,-0.110841,0.077478,0.041119,1,1
751,19,-0.736925,-0.104051,-0.013946,0.139547,1,1
752,19,-0.728582,-0.042991,0.061324,0.043999,1,1
721,19,-0.868890,0.020694,0.138702,-0.010656,1,1
728,19,-0.821535,-0.076021,0.026931,0.060239,1,1
748,19,-0.802837,-0.154390,0.081227,0.065613,0,1
757,19,-0.759471,-0.002508,0.055533,-0.010226,1,1
753,19,-0.691443,-0.083788,0.012924,-0.054616,1,1
733,19,-0.805865,0.104595,0.136944,0.091775,1,0
754,19,-0.782805,0.052552,0.085316,0.102665,1,1
725,19,-0.773890,-0.008398,0.108123,0.043354,1,1
726,19,-0.745487,0.047215,0.081376,0.059211,1,1
731,19,-0.804444,0.046114,0.152718,0.029601,1,1
734,19,-0.816271,-0.100919,0.130358,0.099085,1,1
722,19,-0.796339,0.044811,0.133789,0.084965,1,1
755,19,-0.746867,-0.137447,0.111793,0.065376,1,1
758,19,-0.788743,-0.029502,0.084546,0.080219,1,1
750,19,-0.752984,-0.049380,0.109856,0.156777,1,1
756,19,-0.720178,-0.052454,0.139585,0.121079,1,1
724,19,-0.712130,0.030857,0.142881,0.015027,1,1
742,19,-0.780950,0.052784,0.048491,0.055538,1,1
767,20,-0.837344,0.065698,0.079637,0.027609,1,1
776,20,-0.827146,-0.025103,0.157928,0.059644,1,1
782,20,-0.767180,0.048331,0.124093,0.058474,1,1
780,20,-0.811257,-0.056568,0.060646,0.080174,1,1
796,20,-0.788955,-0.045657,0.021934,0.019977,1,1
783,20,-0.883132,-0.064348,0.024751,0.085497,1,1
786,20,-0.608945,-0.028062,0.064405,-0.033633,0,1
771,20,-0.787974,-0.003789,0.054314,0.070395,1,1
761,20,-0.796444,0.008867,0.096672,0.128064,1,1
781,20,-0.756052,-0.091574,0.033655,0.024180,1,1
770,20,-0.736732,0.024111,0.150962,0.146725,1,1
764,20,-0.712809,0.058706,0.107432,0.031127,1,1
798,20,-0.748802,-0.101992,0.080053,-0.046150,1,1
799,20,-0.865884,0.016871,0.062149,0.107217,1,1
793,20,-0.806127,-0.079562,0.100964,0.162690,1,1
765,20,-0.780158,-0.004201,0.126735,0.015005,1,1
792,20,-0.766239,0.019928,0.067030,0.099616,1,1
775,20,-0.826825,0.047209,0.107842,0.059776,1,1
777,20,-0.860074,0.024310,0.077708,0.008280,1,1
773,20,-0.759610,0.066377,0.109228,0.026010,1,1
784,20,-0.714928,-0.114089,0.107150,0.099976,1,1
760,20,-0.761219,0.047744,0.195334,0.074464,1,1
795,20,-0.726894,-0.062697,0.121817,0.071400,1,1
794,20,-0.743951,-0.074628,0.057167,0.051384,1,1
763,20,-0.789687,0.031945,0.086617,-0.063175,1,1
772,20,-0.841996,-0.009348,0.098187,0.176255,1,1
769,20,-0.781902,-0.047188,0.069958,0.132785,1,1
785,20,-0.786008,-0.071050,0.166888,0.145964,1,1
768,20,-0.831541,0.019621,0.166765,0.060762,1,1
791,20,-0.734179,-0.120909,0.069734,0.001749,1,1
787,20,-0.798894,-0.156232,0.017567,0.049476,0,1
779,20,-0.785939,-0.040380,0.255821,-0.083066,1,1
762,20,-0.816921,0.005922,0.119095,0.037443,1,1
774,20,-0.855119,0.005206,0.126182,0.072506,1,1
778,20,-0.809399,0.008746,0.119725,0.018720,1,1
789,20,-0.723787,0.042674,0.160900,0.039477,1,1
797,20,-0.833840,-0.034849,0.023337,0.154411,1,1
790,20,-0.706125,-0.066730,0.099312,0.077226,1,1
766,20,-0.901563,-0.058031,0.236065,0.102853,1,1
788,20,-0.774175,-0.059687,0.048810,0.035534,1,1
817,21,-0.737654,0.078707,0.170928,0.144096,1,1
818,21,-0.858181,0.073361,0.080801,0.103188,1,0
828,21,-0.797186,-0.130685,0.107055,-0.002221,1,1
820,21,-0.736470,-0.017264,0.153899,0.066134,1,1
816,21,-0.797915,-0.034120,0.110838,0.007226,1,1
821,21,-0.857766,-0.095791,0.022066,0.029783,1,1
805,21,-0.788062,0.014027,0.171286,0.032159,1,1
822,21,-0.833482,-0.104223,0.058753,0.064396,1,1
826,21,-0.788331,-0.097745,0.092450,0.067754,1,1
832,21,-0.719615,-0.063184,0.060458,0.097767,1,1
811,21,-0.734685,0.039992,0.060959,0.062199,1,1
809,21,-0.836561,0.012158,0.131871,0.110652,1,1
823,21,-0.756877,-0.064310,0.088447,0.106836,1,1
807,21,-0.877452,-0.062534,0.106874,0.100004,1,1
812,21,-0.800883,-0.058332,0.086851,0.036654,1,1
836,21,-0.680522,-0.031225,0.071317,0.109469,1,1
810,21,-0.848734,-0.045020,0.069483,0.127901,1,1
804,21,-0.809579,0.018888,0.068886,0.049636,1,1
827,21,-0.709684,-0.073714,0.044808,0.064784,1,1
834,21,-0.766413,0.032109,0.125240,0.043017,1,1
806,21,-0.880355,-0.025370,0.102192,-0.003890,1,1
839,21,-0.841929,-0.008510,0.118183,0.034291,1,1
833,21,-0.725040,-0.183280,0.097438,0.078338,0,1
837,21,-0.685676,-0.031665,0.104164,0.046856,1,1
838,21,-0.771508,-0.063352,0.040710,0.100047,1,1
803,21,-0.877398,0.004577,0.105167,0.033339,1,1
835,21,-0.749301,-0.051481,0.138433,0.122692,1,1
829,21,-0.828122,-0.066657,0.061068,0.053067,1,1
814,21,-0.823091,-0.003529,0.122103,0.129638,1,1
800,21,-0.698630,-0.009164,0.162840,0.032972,1,1
815,21,-0.830025,-0.019045,0.155955,0.083916,1,1
802,21,-0.781015,-0.096201,0.195545,0.078185,1,1
831,21,-0.711092,-0.019292,0.106353,0.014598,1,1
825,21,-0.802365,0.030291,-0.013196,0.066934,1,1
813,21,-0.850044,0.042640,0.075940,0.081305,1,1
808,21,-0.842497,0.019823,0.118706,0.084162,1,1
801,21,-0.873867,-0.070931,0.145339,0.016623,1,1
819,21,-0.837934,-0.074382,0.229947,0.067977,1,1
824,21,-0.750577,0.036405,0.091648,0.028277,1,1
830,21,-0.830834,-0.134630,0.128567,0.031057,1,1
859,22,-0.848072,-0.007155,0.188277,0.111269,1,1
851,22,-0.822189,0.001548,0.133424,0.103861,1,1
869,22,-0.702014,-0.130269,0.174175,0.190512,0,1
852,22,-0.859050,0.046941,0.217971,0.128424,1,1
846,22,-0.747248,-0.009358,0.115402,0.027547,1,1
848,22,-0.698508,0.043121,0.185354,0.011705,1,1
849,22,-0.779852,-0.028211,0.115151,0.055971,1,1
872,22,-0.693751,-0.071357,0.098306,0.048626,1,1
863,22,-0.767820,0.007109,0.052956,0.156400,1,1
865,22,-0.743143,-0.069722,0.152382,0.087502,1,1
857,22,-0.798361,-0.036103,0.109475,0.112621,1,1
862,22,-0.786665,-0.098080,0.083650,0.108414,1,1
845,22,-0.886694,0.019921,0.065526,0.193126,1,1
861,22,-0.695185,-0.140752,0.090989,-0.028386,0,1
867,22,-0.784834,-0.098558,0.137652,0.107616,1,1
864,22,-0.712433,-0.018298,0.065375,0.055822,1,1
842,22,-0.783025,0.013056,0.042728,0.114623,1,1
844,22,-0.748305,-0.005526,0.121621,0.113581,1,1
850,22,-0.775912,-0.026816,0.148312,0.077614,1,1
877,22,-0.757732,-0.109149,0.023863,0.147623,1,1
868,22,-0.802889,-0.032397,0.089939,0.102813,1,1
858,22,-0.790624,-0.012007,0.108095,0.064771,1,1
843,22,-0.740711,0.050867,0.136159,0.057711,1,1
874,22,-0.730449,-0.102026,0.083999,0.149244,1,1
875,22,-0.708250,-0.010503,0.154586,0.092098,1,1
871,22,-0.781817,-0.091629,0.038778,0.008855,1,1
840,22,-0.811693,-0.012269,0.132825,0.083671,1,1
856,22,-0.734369,0.028494,0.039866,0.086895,1,1
841,22,-0.788029,-0.130542,0.206302,0.085718,1,1
860,22,-0.808331,-0.128504,0.089099,0.024094,1,1
847,22,-0.859531,-0.048316,0.146034,0.070051,1,1
879,22,-0.695274,-0.065665,0.164557,0.043707,1,1
873,22,-0.745896,-0.050761,0.092603,0.065322,1,1
866,22,-0.729758,-0.026671,0.088053,0.070187,1,1
876,22,-0.801266,-0.042416,0.041092,0.049936,1,1
855,22,-0.763399,0.043067,0.099095,-0.061789,1,1
853,22,-0.851707,-0.022929,0.188574,0.164905,1,1
878,22,-0.864834,-0.070758,0.063058,0.098783,1,1
854,22,-0.894437,0.051105,0.130523,0.039625,1,0
870,22,-0.782705,-0.112635,0.136245,0.040847,1,1
915,23,-0.837431,-0.047840,-0.078955,0.187701,1,1
884,23,-0.890682,0.052065,0.104385,0.001694,1,0
917,23,-0.793802,-0.113913,-0.082078,0.156495,1,1
896,23,-0.772249,-0.047399,0.251336,0.060032,1,1
891,23,-0.786100,-0.043364,0.055103,0.049351,1,1
903,23,-0.668452,-0.079467,-0.086668,0.166935,1,1
902,23,-0.805755,-0.079790,-0.163612,0.117055,1,1
916,23,-0.754356,-0.073986,-0.138125,0.117091,1,1
899,23,-0.792086,0.008478,0.197882,0.035212,1,1
900,23,-0.681573,-0.071659,-0.043121,0.161336,1,1
906,23,-0.759749,-0.004006,-0.115638,0.152928,1,1
893,23,-0.716473,0.016747,0.176230,0.066432,1,1
901,23,-0.841084,-0.048422,-0.074545,0.130607,1,1
881,23,-0.865610,0.037509,0.070297,0.128404,1,1
888,23,-0.764515,0.008911,0.155566,0.074050,1,1
907,23,-0.733005,-0.063385,-0.029332,0.098068,1,1
883,23,-0.827550,0.021439,0.078241,0.031386,1,1
882,23,-0.728139,0.038659,0.120474,0.182388,1,1
890,23,-0.816994,0.043420,0.118258,0.144961,1,1
887,23,-0.784442,0.042308,0.089312,0.083400,1,1
913,23,-0.720270,-0.097416,-0.105706,0.149257,1,1
912,23,-0.744446,-0.044234,-0.009328,0.024907,1,1
908,23,-0.777416,-0.085619,-0.223498,0.146411,1,1
911,23,-0.739643,-0.043951,-0.104516,0.155107,1,1
889,23,-0.766404,-0.020777,0.116509,0.046018,1,1
910,23,-0.805103,0.025902,-0.215820,0.184213,1,1
897,23,-0.844280,0.033489,0.193981,0.138319,1,1
892,23,-0.826374,0.029926,0.172647,-0.010264,1,1
918,23,-0.794893,0.026237,-0.082858,0.130425,1,1
885,23,-0.928006,0.022436,0.156819,0.050534,1,0
909,23,-0.781210,-0.042309,-0.164330,0.140419,1,1
895,23,-0.835295,-0.056000,0.285782,0.069177,1,1
898,23,-0.771993,0.003453,0.159768,0.024898,1,1
886,23,-0.778681,0.072389,0.204153,0.113981,1,1
894,23,-0.808077,-0.078588,0.092949,0.161779,1,1
919,23,-0.727913,-0.076816,-0.041943,0.042451,1,1
914,23,-0.689337,-0.074511,-0.106445,0.242012,1,1
905,23,-0.811288,0.004966,-0.140283,0.156386,1,1
880,23,-0.736121,-0.040251,0.163741,0.089797,1,1
904,23,-0.766924,-0.024352,-0.106450,0.120827,1,1
959,24,-0.774080,-0.026755,-0.117801,0.124441,1,1
952,24,-0.727158,-0.044291,-0.122037,0.089911,1,1
955,24,-0.783671,-0.100037,-0.091964,0.162522,1,1
941,24,-0.745901,-0.078519,-0.132832,0.165183,1,1
945,24,-0.804413,-0.076289,-0.163546,0.143405,1,1
942,24,-0.742642,-0.030291,-0.214836,0.186184,1,1
937,24,-0.777813,-0.038598,0.146569,0.051749,1,1
926,24,-0.767623,-0.045504,0.118994,0.085026,1,1
944,24,-0.663199,-0.010562,-0.121229,0.072681,1,1
930,24,-0.828717,-0.001538,0.084030,0.050709,1,1
946,24,-0.669951,0.021567,-0.110797,0.048265,1,1
957,24,-0.868932,-0.030846,-0.157243,0.111830,1,1
954,24,-0.736341,0.049221,-0.188931,0.104231,1,1
938,24,-0.767087,-0.038559,0.127093,0.095824,1,1
949,24,-0.692917,-0.167137,-0.157463,0.173090,0,1
931,24,-0.819328,0.043681,0.219868,0.093008,1,1
940,24,-0.774615,-0.025804,-0.034774,0.105214,1,1
953,24,-0.665556,-0.086927,-0.101991,0.181786,0,1
920,24,-0.824444,0.031753,0.205622,0.048028,1,1
950,24,-0.789540,-0.151088,-0.133596,0.161340,0,1
934,24,-0.805718,-0.007945,0.143049,0.061899,1,1
922,24,-0.753469,-0.018062,0.127054,0.099716,1,1
924,24,-0.772545,0.046080,0.019608,0.182642,1,1
951,24,-0.840149,0.091210,-0.154348,0.049413,1,1
936,24,-0.725638,0.050756,0.077345,0.073154,1,1
948,24,-0.780822,0.028092,-0.141962,0.109446,1,1
928,24,-0.675455,-0.035233,0.150537,0.161175,1,1
958,24,-0.699249,0.072523,-0.087766,0.130971,1,1
927,24,-0.865275,-0.061517,0.194501,0.068702,1,1
929,24,-0.799734,-0.035137,0.119277,0.101025,1,1
923,24,-0.781687,0.001063,0.180471,0.084111,1,1
947,24,-0.719387,-0.051645,-0.061903,0.148273,1,1
925,24,-0.761121,-0.016968,0.129257,0.164679,1,1
921,24,-0.756970,0.031703,0.144302,0.126604,1,1
933,24,-0.831196,-0.033354,0.175134,0.112804,1,1
956,24,-0.705123,-0.000037,-0.049244,0.095616,1,1
943,24,-0.803696,0.013280,-0.151708,0.123718,1,1
935,24,-0.845599,-0.054271,0.120427,0.110681,1,1
932,24,-0.841670,0.037365,0.118742,0.052441,1,1
939,24,-0.770378,0.009679,0.175042,0.118016,1,1
987,25,-0.808792,-0.062810,-0.112517,0.192641,1,1
977,25,-0.772735,0.003227,0.148298,0.141480,1,1
999,25,-0.752211,-0.092466,-0.084696,0.069595,1,1
962,25,-0.817243,-0.141042,0.107848,0.099559,1,1
993,25,-0.764813,-0.104817,-0.163723,0.031155,1,1
984,25,-0.726524,-0.058083,-0.080447,0.133325,1,1
975,25,-0.803709,-0.058892,0.161356,0.068913,1,1
973,25,-0.740454,-0.056811,0.101748,-0.008280,1,1
997,25,-0.761531,0.005696,-0.183226,0.144375,1,1
964,25,-0.680358,-0.002565,0.026802,0.105927,1,1
992,25,-0.643213,-0.014083,-0.208953,0.153671,0,1
971,25,-0.739104,0.108031,0.144102,0.037675,1,0
980,25,-0.754115,-0.041719,-0.076939,0.174051,1,1
979,25,-0.786873,0.030852,0.183788,-0.011469,1,1
960,25,-0.776058,0.005018,0.102106,0.057605,1,1
982,25,-0.775982,0.043650,-0.164144,0.129774,1,1
991,25,-0.847060,-0.092390,-0.116031,0.156333,1,1
963,25,-0.780519,0.023161,0.140997,-0.068953,1,1
970,25,-0.860554,0.026315,0.170270,0.086459,1,1
972,25,-0.825385,0.071063,0.102499,0.114454,1,1
986,25,-0.670375,-0.023533,-0.075982,0.138349,1,1
994,25,-0.823182,-0.039510,-0.098177,0.052220,1,1
967,25,-0.778980,0.004354,0.105783,0.170854,1,1
995,25,-0.707495,-0.038240,-0.164269,0.116605,1,1
990,25,-0.729606,-0.084379,-0.104748,0.166958,1,1
968,25,-0.812384,-0.079671,0.134199,0.018573,1,1
985,25,-0.730120,-0.105916,-0.127739,0.101321,1,1
989,25,-0.736989,0.040072,-0.137691,0.169801,1,1
981,25,-0.752391,-0.022774,-0.141068,0.078518,1,1
974,25,-0.765118,0.072954,0.186683,-0.021213,1,1
983,25,-0.761677,-0.040812,-0.088359,0.095278,1,1
988,25,-0.876129,-0.003763,-0.094785,0.067763,1,1
976,25,-0.724697,0.000262,0.143657,0.175528,1,1
966,25,-0.783744,0.015716,0.094350,0.090235,1,1
969,25,-0.838426,0.058365,0.179320,-0.017930,1,1
998,25,-0.746592,-0.006527,-0.101068,0.259264,1,1
996,25,-0.712571,-0.013644,-0.106238,0.125915,1,1
961,25,-0.781620,-0.036094,0.110379,-0.020128,1,1
978,25,-0.730457,0.023493,0.013493,0.161550,1,1
965,25,-0.800938,0.059209,0.148111,0.048232,1,1
1030,26,-0.742841,0.028790,-0.103231,0.120624,1,1
1023,26,-0.724424,-0.024620,-0.231617,0.174809,1,1
1028,26,-0.770549,-0.024355,-0.205220,0.141430,1,1
1033,26,-0.684974,-0.059016,-0.069386,0.169191,1,1
1018,26,-0.802980,-0.040092,0.093900,0.044061,1,1
1013,26,-0.763154,0.145065,0.145124,0.077305,1,0
1017,26,-0.706432,-0.115580,0.194844,0.114936,1,1
1021,26,-0.707369,-0.119074,-0.138820,0.174721,1,1
1037,26,-0.783932,-0.013371,-0.204833,0.092529,1,1
1007,26,-0.724990,0.059730,0.077274,0.039327,1,1
1010,26,-0.909617,0.025078,0.160253,0.084409,1,0
1038,26,-0.762295,-0.003268,-0.158626,0.106893,1,1
1015,26,-0.831817,0.064853,0.081801,0.062524,1,1
1024,26,-0.784626,0.052558,-0.086347,0.127913,1,1
1032,26,-0.677100,-0.090918,-0.118875,0.120005,1,1
1008,26,-0.790137,0.014392,0.098372,0.128065,1,1
1019,26,-0.775106,0.005987,0.187507,0.002957,1,1
1026,26,-0.738631,0.029244,-0.182260,0.134716,1,1
1003,26,-0.807908,-0.041128,0.104367,-0.043493,1,1
1036,26,-0.601338,-0.015745,-0.107446,0.124246,0,1
1035,26,-0.677348,-0.021983,-0.120707,0.078381,1,1
1002,26,-0.796723,0.052836,0.155124,0.025889,1,1
1006,26,-0.850901,0.005803,0.204398,0.081628,1,1
1009,26,-0.667015,0.035184,0.104835,0.068578,1,1
1012,26,-0.721176,0.003582,0.111625,0.004126,1,1
1011,26,-0.768657,-0.068911,0.134437,0.090392,1,1
1031,26,-0.715425,-0.097898,-0.099093,0.120283,1,1
1027,26,-0.783324,0.076164,-0.120605,0.177928,1,1
1025,26,-0.731376,-0.112844,-0.121803,0.173626,1,1
1034,26,-0.661043,-0.050833,-0.151600,0.130041,1,1
1022,26,-0.798570,-0.018222,-0.095351,0.137319,1,1
1014,26,-0.852990,0.036810,0.164659,0.020111,1,1
1039,26,-0.688666,0.012489,-0.066227,0.017475,1,1
1000,26,-0.738136,0.061102,0.130023,0.047468,1,1
1005,26,-0.823570,0.010399,0.091788,0.079794,1,1
1016,26,-0.811818,0.080348,0.189329,0.090971,1,1
1001,26,-0.769225,-0.001781,0.048149,0.059234,1,1
1029,26,-0.741609,-0.080506,-0.097284,0.135106,1,1
1004,26,-0.765840,0.036207,0.079341,0.058398,1,1
1020,26,-0.768223,-0.071856,-0.198683,0.111393,1,1
1063,27,-0.721501,-0.051725,-0.146047,0.090303,1,1
1053,27,-0.702486,0.060868,0.175894,0.048292,1,1
1065,27,-0.783174,-0.068915,-0.116868,0.106954,1,1
1058,27,-0.873819,-0.012195,0.175004,0.054023,1,1
1069,27,-0.757890,-0.052619,-0.090909,0.095867,1,1
1043,27,-0.853783,0.063797,0.087476,0.058243,1,0
1057,27,-0.825222,0.028332,0.061818,0.085199,1,1
1075,27,-0.684433,0.031970,-0.165956,0.200283,1,1
1050,27,-0.730217,-0.041832,0.178734,0.070035,1,1
1072,27,-0.825685,-0.063473,-0.099942,0.080443,1,1
1073,27,-0.830880,-0.027179,-0.140390,0.079076,1,1
1062,27,-0.760180,-0.090721,-0.050820,0.089253,1,1
1071,27,-0.804661,-0.053153,-0.036033,0.050600,1,1
1066,27,-0.687229,0.007967,-0.060014,0.177592,1,1
1054,27,-0.698022,0.013173,0.148181,0.120529,1,1
1068,27,-0.751552,-0.043027,-0.124840,0.149066,1,1
1051,27,-0.784862,-0.050981,0.138074,0.007365,1,1
1079,27,-0.777482,0.001477,-0.094882,0.042300,1,1
1047,27,-0.829066,-0.042352,0.109262,0.089219,1,1
1061,27,-0.727506,-0.006629,-0.152132,0.158821,1,1
1077,27,-0.707576,-0.064273,-0.107738,0.168800,1,1
1055,27,-0.735196,-0.107745,0.117232,-0.006929,1,1
1049,27,-0.808782,-0.017055,0.172632,0.053491,1,1
1064,27,-0.719690,-0.023418,-0.222438,0.156258,1,1
1048,27,-0.726252,0.000162,0.149624,0.096547,1,1
1052,27,-0.735110,0.025153,0.163725,0.049396,1,1
1078,27,-0.668135,0.021684,-0.113385,0.020996,1,1
1040,27,-0.787668,-0.028228,0.031819,0.146602,1,1
1060,27,-0.788507,-0.041386,-0.167217,0.139339,1,1
1046,27,-0.743034,-0.055348,0.126140,0.018166,1,1
1076,27,-0.756965,-0.035571,-0.096298,0.062432,1,1
1056,27,-0.661037,0.018493,0.130953,0.052846,1,1
1067,27,-0.691244,-0.050794,-0.138900,0.092921,1,1
1042,27,-0.821603,0.063186,0.040691,0.153449,1,1
1041,27,-0.784158,-0.041126,0.113567,0.044366,1,1
1045,27,-0.782322,-0.007181,0.221863,0.040112,1,1
1070,27,-0.767389,-0.106559,-0.148801,0.035586,1,1
1059,27,-0.685087,-0.000871,0.145096,0.125841,1,1
1074,27,-0.814988,0.000861,-0.138896,0.060889,1,1
1044,27,-0.836838,-0.072074,0.179628,0.036890,1,1
1093,28,-0.767052,0.039859,0.141721,-0.012920,1,1
1116,28,-0.692717,-0.023552,-0.077826,0.121316,1,1
1080,28,-0.867512,-0.026981,0.075204,0.009637,1,1
1095,28,-0.807312,-0.018075,0.067350,0.119499,1,1
1107,28,-0.655027,-0.013843,-0.069907,0.202324,1,1
1081,28,-0.774226,-0.067845,0.203551,0.057921,1,1
1092,28,-0.744811,0.031833,0.186607,-0.013057,1,1
1111,28,-0.721560,0.027148,-0.096671,0.071584,1,1
1100,28,-0.790392,-0.012771,-0.026895,0.106701,1,1
1108,28,-0.711039,-0.036591,-0.090382,0.093646,1,1
1104,28,-0.690612,0.009481,-0.144643,0.129949,1,1
1082,28,-0.801145,-0.023299,0.162784,0.210041,1,1
1102,28,-0.744556,-0.062495,-0.060830,0.151046,1,1
1109,28,-0.692736,0.027624,-0.111394,-0.034892,1,1
1084,28,-0.763343,0.033866,0.114460,0.033380,1,1
1103,28,-0.734897,0.010938,-0.170168,0.028001,1,1
1101,28,-0.716212,-0.050128,-0.137504,0.090920,1,1
1099,28,-0.792863,0.037824,0.174226,0.034057,1,1
1098,28,-0.760516,0.008114,0.073949,0.049602,1,1
1087,28,-0.786287,-0.061285,0.086195,0.064758,1,1
1117,28,-0.691386,0.020211,-0.213022,0.089334,1,1
1112,28,-0.761130,0.004604,-0.118615,0.142792,1,1
1105,28,-0.824160,-0.108521,-0.111884,0.044677,1,1
1085,28,-0.832702,-0.002592,0.065148,0.063991,1,1
1110,28,-0.699848,0.096751,-0.133533,0.107968,1,1
1119,28,-0.628537,0.030293,-0.157272,0.048354,0,1
1089,28,-0.726746,-0.038764,0.168154,0.134060,1,1
1118,28,-0.763470,-0.034542,-0.099272,0.057836,1,1
1094,28,-0.773689,0.020227,0.096265,0.014751,1,1
1115,28,-0.733312,-0.012891,-0.106193,0.127374,1,1
1097,28,-0.766139,0.037383,0.126898,0.094463,1,1
1090,28,-0.813025,-0.025518,0.148713,0.050694,1,1
1096,28,-0.731941,0.063392,0.139976,0.143320,1,1
1114,28,-0.657800,0.035355,-0.128175,0.107807,1,1
1113,28,-0.751837,-0.142589,-0.178294,0.038512,1,1
1091,28,-0.761816,-0.050557,0.167764,0.047608,1,1
1106,28,-0.721249,0.021821,-0.126045,0.117432,1,1
1083,28,-0.833166,-0.007758,0.211497,0.089532,1,1
1086,28,-0.770362,0.032121,0.176157,0.063013,1,1
1088,28,-0.808355,0.067840,0.180937,0.156200,1,1
1131,29,-0.791701,0.007870,0.045953,0.056450,1,1
1144,29,-0.737322,-0.041410,-0.077758,0.217487,1,1
1159,29,-0.732669,-0.153793,-0.071629,0.248545,0,1
1142,29,-0.594711,-0.027719,-0.156971,0.134813,0,1
1147,29,-0.751564,-0.019193,-0.155448,0.139730,1,1
1133,29,-0.772280,-0.039795,0.062502,0.102857,1,1
1124,29,-0.817944,-0.067229,0.172172,0.015742,1,1
1150,29,-0.733343,0.007852,-0.132562,0.162598,1,1
1122,29,-0.809838,0.030005,0.209915,0.058916,1,1
1146,29,-0.717527,0.014988,-0.080686,-0.014053,1,1
1154,29,-0.754720,-0.003808,-0.152992,0.167961,1,1
1140,29,-0.703998,0.020318,-0.174922,0.061589,1,1
1157,29,-0.765323,0.070579,-0.061324,0.094153,1,1
1152,29,-0.683704,-0.039567,-0.112101,0.074350,1,1
1125,29,-0.870123,-0.034894,0.179657,0.115202,1,1
1139,29,-0.842078,0.007448,0.082421,0.063651,1,1
1153,29,-0.775893,-0.059130,-0.189485,0.097943,1,1
1156,29,-0.659253,-0.030822,-0.077693,0.181043,1,1
1151,29,-0.753183,-0.036883,-0.080986,0.169687,1,1
1143,29,-0.794537,-0.001312,-0.089258,0.055669,1,1
1126,29,-0.740881,-0.031051,0.077707,0.034491,1,1
1145,29,-0.702988,-0.080175,-0.201949,0.109844,1,1
1138,29,-0.733999,-0.102959,0.123895,0.124234,1,1
1158,29,-0.784601,0.047512,-0.123453,0.171028,1,1
1155,29,-0.800387,-0.070283,-0.148075,0.042888,1,1
1128,29,-0.821039,0.098835,0.235244,0.059111,1,0
1123,29,-0.800871,0.080785,0.100421,0.032899,1,1
1120,29,-0.764565,-0.005180,0.104861,0.101546,1,1
1135,29,-0.846026,0.050689,0.139219,0.122312,1,1
1121,29,-0.727669,-0.026193,0.146093,0.029360,1,1
1129,29,-0.746591,-0.017063,0.160205,0.064184,1,1
1141,29,-0.775724,-0.034320,-0.081367,0.079520,1,1
1148,29,-0.759035,-0.058860,-0.119821,0.074140,1,1
1136,29,-0.812227,0.074819,0.154633,0.081015,1,1
1127,29,-0.747861,-0.014692,0.140711,0.051631,1,1
1130,29,-0.781204,-0.000930,0.150067,0.083878,1,1
1137,29,-0.897091,-0.018086,0.078818,-0.005473,1,0
1132,29,-0.864396,-0.051481,0.127322,0.118494,1,1
1149,29,-0.657035,0.008793,-0.141764,0.088896,1,1
1134,29,-0.734930,-0.009119,0.172741,0.083679,1,1
1191,30,-0.829961,0.004546,-0.067690,0.053146,1,1
1193,30,-0.808411,-0.077762,-0.147777,0.138331,1,1
1195,30,-0.797208,-0.016102,-0.138697,0.084175,1,1
1186,30,-0.702678,-0.048173,-0.125181,0.142249,1,1
1199,30,-0.658316,-0.073165,-0.128374,0.107332,0,1
1196,30,-0.744363,0.018994,-0.123456,0.176357,1,1
1166,30,-0.811001,-0.005011,0.046111,0.052152,1,1
1192,30,-0.802397,-0.055410,-0.092720,0.197334,1,1
1188,30,-0.698716,-0.057030,-0.154000,0.123381,1,1
1194,30,-0.707069,-0.057208,-0.130595,0.050583,1,1
1176,30,-0.765044,0.058822,0.158332,0.055376,1,1
1183,30,-0.827073,-0.021042,-0.141340,0.038855,1,1
1172,30,-0.789302,-0.011726,0.151131,0.123149,1,1
1197,30,-0.714760,-0.084493,-0.098601,0.141439,1,1
1161,30,-0.810509,-0.073454,0.067504,0.065528,1,1
1167,30,-0.809832,0.054508,0.186689,0.080911,1,1
1175,30,-0.822357,0.041887,0.132694,0.091440,1,1
1165,30,-0.820360,-0.040333,0.089419,0.107173,1,1
1198,30,-0.703319,-0.057594,-0.068924,0.169796,1,1
1162,30,-0.842916,-0.094507,0.090510,0.145146,1,1
1170,30,-0.810176,-0.031398,0.086321,0.169518,1,1
1184,30,-0.693470,0.033796,-0.077901,0.154087,1,1
1169,30,-0.860054,0.041500,0.230345,0.005294,1,1
1160,30,-0.812210,-0.027859,0.125953,0.015130,1,1
1168,30,-0.708879,0.050251,0.133665,0.152644,1,1
1177,30,-0.864939,0.032769,0.127299,0.048039,1,1
1185,30,-0.720488,-0.064596,-0.132651,0.075754,1,1
1179,30,-0.707784,-0.028070,0.140200,0.113544,1,1
1182,30,-0.674971,-0.070607,-0.119730,0.147800,1,1
1180,30,-0.762244,-0.071673,-0.152883,0.103409,1,1
1181,30,-0.821064,-0.032406,-0.139226,0.167716,1,1
1174,30,-0.812962,-0.033684,0.107746,0.082602,1,1
1171,30,-0.840586,-0.038562,0.106564,0.135517,1,1
1178,30,-0.756276,-0.088343,0.121730,0.047304,1,1
1163,30,-0.786664,-0.007951,0.094478,0.026278,1,1
1164,30,-0.817854,0.001094,0.071115,0.082941,1,1
1189,30,-0.707122,0.025368,-0.049005,0.159506,1,1
1190,30,-0.818051,-0.069717,-0.022822,0.080832,1,1
1187,30,-0.751105,-0.021845,-0.105775,0.136444,1,1
1173,30,-0.779560,-0.033624,0.100354,0.105876,1,1
1202,31,-0.810580,0.018878,0.171009,-0.054758,1,1
1236,31,-0.770563,-0.017019,-0.056136,0.075134,1,1
1208,31,-0.760125,0.014990,0.133897,0.039121,1,1
1200,31,-0.856220,0.053686,0.046217,0.103867,1,0
1227,31,-0.721292,-0.033325,-0.175986,0.132690,1,1
1233,31,-0.728997,-0.004076,-0.115374,0.104945,1,1
1225,31,-0.708424,-0.057045,-0.176683,0.139230,1,1
1204,31,-0.795718,0.008415,0.173317,0.089469,1,1
1205,31,-0.827253,0.085278,0.073392,0.103608,1,0
1232,31,-0.736381,-0.026178,-0.178391,0.205968,1,1
1214,31,-0.832965,0.028082,0.136842,0.063617,1,1
1218,31,-0.851428,0.063271,0.026964,-0.010421,1,0
1235,31,-0.746282,-0.010492,-0.083532,0.133389,1,1
1207,31,-0.778902,0.084666,0.176440,0.061551,1,1
1238,31,-0.760682,-0.045655,-0.062774,0.179343,1,1
1211,31,-0.720786,0.002339,0.103682,0.043906,1,1
1206,31,-0.674720,0.022495,0.245012,-0.020686,1,1
1201,31,-0.859852,-0.040310,0.189922,0.063819,1,1
1226,31,-0.744335,-0.044955,-0.177994,0.114077,1,1
1219,31,-0.798711,0.029461,0.130557,0.089778,1,1
1220,31,-0.772773,-0.080821,-0.105422,0.105276,1,1
1209,31,-0.782808,-0.047702,0.214941,0.074854,1,1
1217,31,-0.763023,-0.056666,0.132665,0.103403,1,1
1230,31,-0.720074,-0.078061,-0.100917,0.008244,1,1
1228,31,-0.697276,0.038626,-0.057982,0.172746,1,1
1237,31,-0.740638,-0.036778,-0.086319,0.107155,1,1
1234,31,-0.731292,-0.017079,-0.137154,0.092551,1,1
1229,31,-0.750604,-0.055355,-0.067316,0.125269,1,1
1215,31,-0.769517,0.000571,0.067247,0.047643,1,1
1231,31,-0.748640,-0.036940,-0.117658,0.185512,1,1
1212,31,-0.769638,-0.007803,0.167349,0.114813,1,1
1224,31,-0.799188,-0.140232,-0.105563,0.133703,1,1
1216,31,-0.708933,-0.015037,0.128439,0.030323,1,1
1222,31,-0.686716,-0.077207,-0.157928,0.120884,1,1
1203,31,-0.769780,0.050072,0.041723,0.123238,1,1
1210,31,-0.816756,0.000911,0.249085,0.160373,1,1
1239,31,-0.708009,-0.073505,-0.014691,0.199708,1,1
1223,31,-0.700410,0.021700,-0.035935,0.051932,1,1
1213,31,-0.807490,-0.098059,0.139732,0.132766,1,1
1221,31,-0.761975,-0.035076,-0.121615,0.164599,1,1
1246,32,-0.834520,0.016701,0.140562,0.026385,1,1
1260,32,-0.828271,-0.004751,-0.068153,0.215075,1,1
1275,32,-0.796096,-0.063144,-0.095686,0.168654,1,1
1242,32,-0.700305,-0.103043,0.176996,-0.051749,1,1
1254,32,-0.844077,0.050701,0.146377,0.095470,1,1
1265,32,-0.690039,-0.032765,-0.125831,0.106976,1,1
1247,32,-0.760796,0.087935,0.204575,0.058676,1,1
1261,32,-0.737991,-0.060641,-0.210831,0.120522,1,1
1272,32,-0.680573,-0.044385,-0.132795,0.109714,1,1
1269,32,-0.730071,0.039285,-0.177722,0.153118,1,1
1277,32,-0.741264,-0.045983,-0.257798,0.140977,1,1
1267,32,-0.685652,-0.034861,-0.124631,0.154631,1,1
1268,32,-0.828528,-0.081244,-0.084672,0.096943,1,1
1276,32,-0.767511,-0.099783,-0.119058,0.083362,1,1
1248,32,-0.788867,-0.079947,0.163803,0.079218,1,1
1253,32,-0.759552,-0.080917,0.146491,0.063721,1,1
1244,32,-0.752354,-0.007932,0.070244,0.014298,1,1
1264,32,-0.760491,-0.145886,-0.193274,0.277898,1,1
1249,32,-0.816112,0.010769,0.121926,0.081503,1,1
1262,32,-0.721007,-0.088556,-0.169313,0.239728,1,1
1278,32,-0.736303,-0.120500,-0.083532,0.108488,1,1
1257,32,-0.838073,0.043769,0.056285,0.109900,1,1
1279,32,-0.753037,0.083167,-0.079808,0.147139,1,1
1240,32,-0.726501,-0.032882,0.205339,0.039891,1,1
1266,32,-0.726430,-0.049281,-0.085843,0.091923,1,1
1273,32,-0.789696,-0.053231,-0.196655,0.154808,1,1
1258,32,-0.831776,-0.105529,0.068139,-0.002339,1,1
1271,32,-0.724341,-0.064761,-0.175277,0.139014,1,1
1256,32,-0.787492,-0.021297,0.015418,0.018348,1,1
1255,32,-0.749521,-0.101789,0.062528,0.154989,1,1
1241,32,-0.785658,-0.089995,0.077086,0.096267,1,1
1251,32,-0.820188,0.073199,0.140054,0.067352,1,1
1259,32,-0.858195,0.028813,0.065956,0.101906,1,1
1263,32,-0.813017,-0.006160,-0.143570,0.060612,1,1
1252,32,-0.791831,-0.061614,0.164052,0.042239,1,1
1270,32,-0.783842,-0.037603,-0.154839,0.152667,1,1
1274,32,-0.732913,-0.027755,-0.094422,0.109623,1,1
1250,32,-0.742582,0.012707,0.047442,-0.040794,1,1
1245,32,-0.768919,0.006930,0.183625,0.165307,1,1
1243,32,-0.790776,0.074042,0.113273,0.079166,1,1
1300,33,-0.756481,-0.035269,-0.109581,0.017365,1,1
1307,33,-0.726537,0.010351,-0.058905,0.107612,1,1
1295,33,-0.701403,0.002708,0.134696,0.138782,1,1
1315,33,-0.748573,0.006002,-0.023843,0.047314,1,1
1309,33,-0.796761,-0.041115,-0.089579,0.093149,1,1
1285,33,-0.757818,-0.011322,0.134306,0.025599,1,1
1292,33,-0.806456,-0.021470,0.145178,0.024404,1,1
1317,33,-0.768160,-0.054158,-0.165629,0.084047,1,1
1304,33,-0.862222,-0.057333,-0.142001,0.169539,1,1
1280,33,-0.769051,0.070799,0.101184,-0.011715,1,1
1306,33,-0.586689,-0.059328,-0.120304,0.038466,0,1
1287,33,-0.831905,0.042964,0.055260,0.104257,1,1
1314,33,-0.777043,-0.072633,-0.109977,0.118378,1,1
1298,33,-0.828928,0.038285,0.114249,-0.013394,1,1
1311,33,-0.747628,-0.022320,-0.180465,0.125572,1,1
1318,33,-0.715378,-0.012284,-0.172021,0.187909,1,1
1296,33,-0.720346,-0.031101,0.147657,0.091262,1,1
1286,33,-0.886097,0.012344,0.095528,0.050662,1,0
1310,33,-0.670170,-0.056719,-0.108875,0.104622,1,1
1302,33,-0.801287,-0.059693,-0.086382,0.200196,1,1
1305,33,-0.732077,-0.026260,-0.237413,0.097948,1,1
1281,33,-0.770447,-0.012902,0.135862,0.120188,1,1
1289,33,-0.859198,-0.032487,0.121544,0.018709,1,1
1313,33,-0.677859,-0.072460,-0.119174,0.055537,1,1
1303,33,-0.751838,-0.066172,-0.039133,0.098546,1,1
1291,33,-0.697267,0.035057,0.108203,0.090435,1,1
1284,33,-0.823543,-0.020598,0.182229,0.138891,1,1
1293,33,-0.841942,0.007806,0.209514,0.067923,1,1
1312,33,-0.738425,-0.051023,-0.162064,0.040458,1,1
1316,33,-0.681270,-0.049109,-0.212134,0.088682,1,1
1308,33,-0.719372,-0.014014,-0.110801,0.089842,1,1
1319,33,-0.718364,-0.008479,-0.048597,0.136565,1,1
1288,33,-0.721563,-0.026643,0.075368,0.094543,1,1
1294,33,-0.770902,0.072101,0.059245,0.031791,1,1
1301,33,-0.735621,-0.006591,-0.145304,0.129155,1,1
1290,33,-0.811415,-0.052265,0.154800,0.030066,1,1
1299,33,-0.707731,-0.021856,0.128002,0.134977,1,1
1283,33,-0.765405,0.037562,0.142912,0.144548,1,1
1282,33,-0.812300,-0.005793,0.186181,0.004115,1,1
1297,33,-0.864655,-0.052954,0.111086,0.030756,1,1
1340,34,-0.633581,-0.036077,-0.114152,0.105301,0,1
1346,34,-0.725563,-0.092777,-0.207861,0.173448,1,1
1342,34,-0.737792,0.005753,-0.111175,0.196726,1,1
1320,34,-0.717095,0.048097,0.154413,0.054105,1,1
1338,34,-0.759985,-0.006730,0.155496,0.085223,1,1
1355,34,-0.787018,0.005731,-0.106175,0.165813,1,1
1325,34,-0.762337,-0.022827,0.231697,0.140557,1,1
1339,34,-0.771828,-0.090367,0.179780,0.122220,1,1
1333,34,-0.850080,0.045496,0.167785,0.099648,1,1
1344,34,-0.758020,-0.124953,-0.094722,0.144449,1,1
1337,34,-0.844063,0.094283,0.181643,0.028007,1,0
1324,34,-0.646855,-0.049650,0.182075,0.053993,1,1
1343,34,-0.641819,-0.040888,-0.130163,0.227517,0,1
1353,34,-0.779672,-0.052684,-0.062009,0.104884,1,1
1321,34,-0.706726,0.054153,0.123521,0.063539,1,1
1359,34,-0.753968,0.052465,-0.141915,0.208801,1,1
1345,34,-0.804991,-0.068148,-0.150078,0.153263,1,1
1350,34,-0.737800,-0.076668,-0.090796,0.150765,1,1
1354,34,-0.715645,0.024088,-0.080795,0.121314,1,1
1352,34,-0.756774,-0.008282,-0.232602,0.102033,1,1
1348,34,-0.715472,-0.057144,-0.120509,0.070465,1,1
1341,34,-0.684452,-0.068317,-0.104765,0.178053,1,1
1357,34,-0.711051,0.104372,-0.100740,0.167432,1,1
1328,34,-0.891218,0.009884,0.164907,0.145306,1,0
1330,34,-0.872579,0.078263,0.151257,0.080505,1,0
1336,34,-0.787638,-0.067182,0.118461,-0.030188,1,1
1331,34,-0.846374,0.006529,0.194147,0.069369,1,1
1335,34,-0.764339,-0.005305,0.062999,0.034363,1,1
1327,34,-0.814652,-0.014559,0.045478,0.081680,1,1
1358,34,-0.752344,-0.055162,-0.022728,0.146539,1,1
1356,34,-0.804590,-0.042226,-0.134901,0.149659,1,1
1351,34,-0.703245,0.032573,-0.101535,0.073337,1,1
1329,34,-0.826435,0.071346,0.050176,0.049767,1,1
1322,34,-0.732237,0.025672,0.123414,0.068719,1,1
1326,34,-0.690788,-0.091779,-0.046688,-0.041985,1,1
1347,34,-0.701541,-0.145599,-0.060204,0.086435,0,1
1334,34,-0.738545,-0.029688,0.154388,0.027629,1,1
1323,34,-0.718580,0.062411,0.108900,0.016881,1,1
1349,34,-0.791808,-0.093670,-0.136404,0.126702,1,1
1332,34,-0.777154,0.006676,0.237937,0.155585,1,1
1365,35,-0.720753,0.040730,0.150594,0.150894,1,1
1371,35,-0.671093,-0.015349,0.191097,0.040197,1,1
1360,35,-0.706913,-0.019205,0.077561,0.086500,1,1
1377,35,-0.832669,-0.012839,0.145793,0.011581,1,1
1370,35,-0.760596,0.165464,0.105347,0.110891,1,0
1366,35,-0.842612,-0.063847,0.041463,0.107852,1,1
1380,35,-0.706079,-0.022271,-0.126413,0.213385,1,1
1373,35,-0.817700,0.011321,0.150077,0.134934,1,1
1394,35,-0.699199,-0.098501,-0.198730,0.218056,1,1
1369,35,-0.812110,-0.015193,0.130662,0.076793,1,1
1382,35,-0.796787,-0.025926,-0.173225,0.122984,1,1
1361,35,-0.750920,0.000858,0.123568,0.072197,1,1
1387,35,-0.738619,-0.031508,-0.103307,0.123129,1,1
1367,35,-0.825855,-0.046906,0.168025,0.093995,1,1
1362,35,-0.738233,-0.060246,0.154655,0.087331,1,1
1393,35,-0.739266,-0.072370,-0.108142,0.086067,1,1
1392,35,-0.715480,-0.079817,-0.085598,0.183399,1,1
1375,35,-0.707698,0.076375,0.160651,0.064356,1,1
1374,35,-0.809589,-0.099651,0.136824,0.058015,1,1
1364,35,-0.837666,0.030999,0.082455,0.132388,1,1
1396,35,-0.676167,-0.065894,-0.128186,0.058994,1,1
1399,35,-0.716296,-0.104129,-0.182817,0.202533,1,1
1383,35,-0.768282,-0.084824,-0.099290,0.109985,1,1
1378,35,-0.768545,0.035481,0.096602,0.100645,1,1
1386,35,-0.709887,-0.103350,-0.061081,0.098948,1,1
1376,35,-0.705607,-0.003014,0.094160,0.177819,1,1
1385,35,-0.731573,0.022879,-0.096320,0.160373,1,1
1381,35,-0.815378,-0.053460,-0.120822,0.079948,1,1
1397,35,-0.670747,-0.014495,-0.143882,0.230645,1,1
1391,35,-0.666770,-0.028332,-0.024033,0.196293,1,1
1388,35,-0.750598,-0.058378,-0.084442,0.086895,1,1
1372,35,-0.776825,0.050323,0.136935,0.164150,1,1
1398,35,-0.752794,-0.005644,-0.062421,0.118374,1,1
1395,35,-0.872114,-0.076955,-0.158768,0.152380,1,1
1384,35,-0.688688,-0.187463,-0.062243,0.154173,0,1
1390,35,-0.754731,-0.031534,-0.097969,0.124760,1,1
1363,35,-0.711669,0.006933,0.147525,0.101271,1,1
1368,35,-0.753671,0.038814,0.168573,0.158320,1,1
1379,35,-0.893643,0.009457,0.106864,0.076960,1,0
1389,35,-0.650061,-0.022342,-0.182538,0.137890,1,1
1410,36,-0.861322,0.117497,0.232863,0.052474,1,0
1413,36,-0.702004,-0.038252,0.161190,0.069603,1,1
1438,36,-0.794058,-0.041245,-0.187984,0.159755,1,1
1402,36,-0.752181,0.007826,0.165551,0.080180,1,1
1407,36,-0.726546,0.013136,0.092545,0.007438,1,1
1409,36,-0.769374,-0.092084,0.104797,0.139079,1,1
1417,36,-0.833445,0.029057,0.146230,0.102713,1,1
1429,36,-0.694299,-0.084230,-0.172587,0.076445,1,1
1432,36,-0.623671,-0.058858,-0.173422,0.214239,0,1
1427,36,-0.852935,-0.048960,-0.069454,0.169927,1,1
1406,36,-0.779485,-0.043278,0.098153,0.016208,1,1
1434,36,-0.793894,0.070445,-0.141394,0.100326,1,1
1422,36,-0.775585,-0.115392,-0.207792,0.133305,1,1
1424,36,-0.758030,-0.082610,-0.198108,0.133327,1,1
1428,36,-0.656277,0.015352,-0.193319,0.061401,1,1
1400,36,-0.692171,-0.065487,0.159501,0.158202,1,1
1418,36,-0.785530,-0.014308,0.161991,0.118719,1,1
1405,36,-0.703204,0.057300,0.101089,0.073831,1,1
1431,36,-0.798988,-0.016485,-0.177775,0.159690,1,1
1408,36,-0.846996,-0.031815,0.151827,0.163852,1,1
1404,36,-0.804162,-0.019308,0.111516,0.096161,1,1
1421,36,-0.742345,-0.042182,-0.204522,0.157653,1,1
1403,36,-0.828921,0.021219,0.105173,0.073447,1,1
1435,36,-0.805699,-0.202768,-0.066055,0.043932,0,1
1423,36,-0.741297,-0.000947,-0.152636,0.146071,1,1
1433,36,-0.720353,-0.123084,-0.114733,0.187364,1,1
1415,36,-0.700918,-0.007566,0.162755,0.035068,1,1
1430,36,-0.714855,0.035891,-0.040642,0.099736,1,1
1416,36,-0.835154,0.055033,0.150180,0.137978,1,1
1437,36,-0.739739,-0.064464,-0.142517,0.086645,1,1
1411,36,-0.713830,-0.043650,0.144391,0.112585,1,1
1419,36,-0.792415,-0.011209,0.151137,0.133912,1,1
1425,36,-0.740997,0.025010,-0.173185,0.168348,1,1
1420,36,-0.716946,-0.156874,-0.206451,0.005116,0,1
1414,36,-0.722598,-0.033654,0.182472,0.064559,1,1
1401,36,-0.824651,0.036324,0.190303,0.062747,1,1
1439,36,-0.710188,-0.033433,-0.106602,0.196189,1,1
1436,36,-0.799380,-0.023022,-0.086321,0.151181,1,1
1426,36,-0.704287,0.006925,-0.190923,0.155130,1,1
1412,36,-0.692439,0.062188,0.173416,0.114434,1,1
1451,37,-0.761297,0.015367,0.116034,0.027080,1,1
1475,37,-0.661044,-0.033612,-0.106160,0.175374,1,1
1465,37,-0.713135,-0.057143,0.012032,0.079881,1,1
1459,37,-0.755991,0.102023,0.114128,-0.067444,1,1
1463,37,-0.764414,0.041919,-0.124466,0.163078,1,1
1458,37,-0.775527,0.061471,0.084361,0.141242,1,1
1442,37,-0.793957,0.043352,0.202438,0.073292,1,1
1449,37,-0.815990,-0.004578,0.150033,-0.038983,1,1
1476,37,-0.786382,-0.096302,-0.195410,0.164091,1,1
1479,37,-0.766271,-0.076563,-0.116128,0.097846,1,1
1446,37,-0.829677,-0.000773,0.105519,0.059325,1,1
1455,37,-0.771597,0.005090,0.073727,0.145988,1,1
1440,37,-0.809381,0.066246,0.089268,0.079768,1,1
1478,37,-0.780938,0.010095,-0.060646,0.100225,1,1
1456,37,-0.786080,0.031324,0.159677,0.059051,1,1
1466,37,-0.763482,-0.086073,-0.026084,0.137849,1,1
1474,37,-0.712523,-0.051199,-0.133174,0.187903,1,1
1448,37,-0.879350,0.010652,0.215615,0.087421,1,0
1467,37,-0.807420,-0.124449,-0.176212,0.150179,1,1
1453,37,-0.770826,-0.005397,0.056358,0.040406,1,1
1469,37,-0.819335,-0.010324,-0.118259,0.026157,1,1
1462,37,-0.803015,-0.014145,-0.092799,0.124707,1,1
1441,37,-0.788726,-0.010424,0.132845,-0.032255,1,1
1470,37,-0.688997,-0.075651,-0.122554,0.093168,1,1
1454,37,-0.809975,-0.027797,0.073956,0.091821,1,1
1472,37,-0.737529,-0.103649,-0.149271,0.150719,1,1
1444,37,-0.767500,-0.027511,0.120926,0.089939,1,1
1452,37,-0.852008,0.098273,0.125677,0.122084,1,0
1460,37,-0.804385,-0.118990,-0.090866,0.071814,1,1
1457,37,-0.868286,0.066791,0.230535,0.092819,1,0
1468,37,-0.785288,-0.075577,-0.212102,0.198103,1,1
1443,37,-0.768379,-0.018085,0.172012,0.099783,1,1
1445,37,-0.766869,-0.059527,0.117273,0.077243,1,1
1447,37,-0.803794,-0.078830,0.164699,0.149478,1,1
1450,37,-0.910440,-0.057349,0.127076,0.123488,1,0
1461,37,-0.698850,-0.177243,-0.110464,0.101500,0,1
1471,37,-0.786114,0.024335,-0.155335,0.145302,1,1
1464,37,-0.760989,-0.090394,0.011478,0.215624,1,1
1477,37,-0.733041,-0.056458,-0.163945,0.119074,1,1
1473,37,-0.832639,-0.015205,-0.163924,0.183556,1,1
1484,38,-0.811581,0.010592,0.111334,0.096869,1,1
1489,38,-0.794640,-0.063439,0.184277,0.047866,1,1
1512,38,-0.710791,0.025346,0.017872,0.094143,1,1
1483,38,-0.848532,-0.052703,0.086714,0.058750,1,1
1480,38,-0.781191,0.063175,0.139070,0.060922,1,1
1491,38,-0.803003,0.024091,0.139585,0.065679,1,1
1497,38,-0.823368,0.028951,0.162346,0.105143,1,1
1515,38,-0.712893,-0.008696,0.026260,0.117127,1,1
1516,38,-0.765638,0.134945,-0.060707,0.072437,1,1
1498,38,-0.737518,-0.030144,0.143401,0.069908,1,1
1494,38,-0.801738,-0.040393,0.128686,0.076922,1,1
1501,38,-0.657127,0.000927,-0.025229,0.100260,1,1
1513,38,-0.764620,-0.031375,0.017014,0.068737,1,1
1490,38,-0.798229,0.021399,0.170714,0.050363,1,1
1500,38,-0.741220,-0.059686,-0.021690,0.152566,1,1
1510,38,-0.801217,0.013010,-0.019677,0.169148,1,1
1499,38,-0.796803,0.041394,0.087010,0.042431,1,1
1502,38,-0.773321,-0.200111,-0.000826,0.040204,0,1
1485,38,-0.884783,-0.036398,0.277743,0.026361,1,1
1518,38,-0.737700,-0.052211,0.046672,0.128413,1,1
1482,38,-0.816461,-0.025747,0.135805,0.072500,1,1
1492,38,-0.764812,-0.012716,0.142598,0.098318,1,1
1507,38,-0.762392,-0.010132,-0.073723,0.057653,1,1
1505,38,-0.645778,-0.063592,0.001015,0.081958,0,1
1514,38,-0.691326,-0.024843,-0.119261,0.141334,1,1
1511,38,-0.754626,-0.080561,0.005061,0.192823,1,1
1495,38,-0.825896,0.116046,0.169122,0.107964,1,0
1493,38,-0.801612,-0.022052,0.105394,0.122168,1,1
1508,38,-0.821853,-0.091113,-0.055335,0.086321,1,1
1509,38,-0.667105,-0.041181,-0.117649,0.110202,1,1
1481,38,-0.740597,-0.004548,0.043730,0.019999,1,1
1517,38,-0.587533,-0.020677,-0.047022,0.099149,0,1
1503,38,-0.732493,0.023277,-0.020663,0.084677,1,1
1486,38,-0.823442,-0.025284,0.160758,0.075207,1,1
1519,38,-0.859959,-0.015031,0.001944,0.106724,1,1
1504,38,-0.736883,-0.065857,-0.109352,0.029438,1,1
1488,38,-0.737556,0.024840,0.129423,0.007437,1,1
1487,38,-0.771223,-0.004221,0.104979,0.053253,1,1
1506,38,-0.830328,-0.085078,-0.009183,0.129667,1,1
1496,38,-0.811655,0.006796,0.079142,0.072537,1,1
1530,39,-0.772622,-0.004107,0.206388,0.015919,1,1
1550,39,-0.808073,-0.016962,0.002665,0.067481,1,1
1527,39,-0.814087,-0.080862,0.105124,0.088535,1,1
1543,39,-0.836475,-0.026825,-0.004747,0.128339,1,1
1522,39,-0.807951,0.037653,0.131029,0.104303,1,1
1544,39,-0.812334,-0.057920,0.007278,0.056088,1,1
1555,39,-0.692107,0.012402,0.002422,0.134833,1,1
1548,39,-0.696533,0.048068,-0.070233,0.246175,1,1
1535,39,-0.811722,-0.006050,0.104430,-0.042255,1,1
1521,39,-0.907996,0.070341,0.119899,0.072882,1,0
1538,39,-0.761269,0.026149,0.115802,0.096414,1,1
1542,39,-0.760972,0.027974,0.028591,0.062660,1,1
1541,39,-0.655730,-0.057894,-0.097488,0.016204,1,1
1523,39,-0.827705,-0.037722,0.164690,-0.007226,1,1
1539,39,-0.810773,0.092027,0.134848,0.003896,1,0
1528,39,-0.832357,-0.002250,0.177677,0.101189,1,1
1536,39,-0.826685,0.078930,0.202448,0.112212,1,0
1558,39,-0.668109,-0.031823,-0.004595,0.060004,1,1
1524,39,-0.785963,0.055355,0.061536,0.101337,1,1
1554,39,-0.788310,-0.076750,-0.038657,0.131042,1,1
1534,39,-0.791772,-0.013303,0.139823,0.117733,1,1
1556,39,-0.711831,-0.056030,-0.104190,0.020253,1,1
1533,39,-0.787569,0.047233,0.138973,0.085988,1,1
1547,39,-0.747281,-0.059220,0.000160,0.162839,1,1
1526,39,-0.733898,-0.134460,0.082175,0.045965,1,1
1553,39,-0.720445,-0.065406,-0.068534,0.024955,1,1
1525,39,-0.787120,0.104854,0.080913,0.107943,1,0
1549,39,-0.786448,-0.071904,0.012957,0.129420,1,1
1557,39,-0.777364,0.001461,-0.015668,0.012506,1,1
1540,39,-0.687612,-0.080723,-0.054950,0.089696,1,1
1529,39,-0.824246,0.074802,0.179043,0.031180,1,1
1546,39,-0.743489,-0.064111,-0.000530,0.056483,1,1
1545,39,-0.796576,-0.054082,0.111865,0.100927,1,1
1532,39,-0.764657,-0.041478,0.065669,0.166755,1,1
1520,39,-0.781744,-0.021535,0.155131,0.029016,1,1
1559,39,-0.773759,-0.062699,-0.057428,0.128217,1,1
1552,39,-0.718523,0.018899,-0.053226,0.124933,1,1
1531,39,-0.792097,-0.052277,0.101332,0.053597,1,1
1537,39,-0.789187,-0.051836,0.082779,0.070760,1,1
1551,39,-0.672950,-0.060780,-0.033626,0.091942,1,1
1592,40,-0.781622,-0.022295,0.014505,0.138436,1,1
1563,40,-0.767530,-0.063159,0.094700,0.050256,1,1
1572,40,-0.829143,-0.053309,0.109640,0.055150,1,1
1586,40,-0.761930,-0.048634,0.055024,0.131362,1,1
1593,40,-0.754444,-0.102864,-0.028698,0.108449,1,1
1596,40,-0.782020,-0.026052,-0.116125,-0.007648,1,1
1599,40,-0.817007,-0.006192,-0.057144,-0.024830,1,1
1588,40,-0.759272,-0.051138,-0.021112,0.053712,1,1
1571,40,-0.802142,-0.000261,0.075002,0.087427,1,1
1578,40,-0.830489,0.025032,0.145229,0.208830,1,1
1566,40,-0.810651,0.008515,0.252264,0.022986,1,1
1564,40,-0.782624,0.005616,0.144783,0.051978,1,1
1584,40,-0.739708,-0.154316,0.001907,0.052000,0,1
1583,40,-0.751817,0.021417,0.065460,0.092240,1,1
1598,40,-0.707071,-0.049586,-0.060777,0.050440,1,1
1570,40,-0.751522,0.009109,0.085575,0.073283,1,1
1589,40,-0.734602,-0.146464,-0.025961,0.022172,0,1
1581,40,-0.744717,-0.036329,-0.046397,0.115594,1,1
1594,40,-0.794036,-0.051353,-0.021364,0.052801,1,1
1577,40,-0.711058,-0.021867,-0.005019,0.125047,1,1
1560,40,-0.722719,0.067860,0.137744,0.083730,1,1
1579,40,-0.837878,-0.070339,0.124381,0.142015,1,1
1573,40,-0.794992,-0.047261,0.126706,0.151247,1,1
1590,40,-0.764397,-0.168171,0.036607,0.073773,0,1
1591,40,-0.810803,-0.103538,-0.127884,0.116526,1,1
1567,40,-0.763040,-0.056074,0.033656,0.039039,1,1
1576,40,-0.825822,0.048240,0.223814,0.119287,1,1
1568,40,-0.737410,-0.006734,0.123711,0.078518,1,1
1580,40,-0.715160,-0.065011,-0.062294,0.093845,1,1
1595,40,-0.774559,-0.020339,-0.009769,0.061611,1,1
1585,40,-0.780865,-0.139640,-0.021782,0.122643,1,1
1574,40,-0.758117,0.013175,0.155712,0.005798,1,1
1597,40,-0.745835,-0.067627,-0.002213,0.073161,1,1
1565,40,-0.821498,-0.081707,0.195675,0.118859,1,1
1562,40,-0.825598,0.017737,0.132674,0.096384,1,1
1587,40,-0.760287,-0.037927,-0.110314,0.111146,1,1
1575,40,-0.743721,0.018423,0.100090,0.029109,1,1
1561,40,-0.795175,-0.028217,0.151540,0.032201,1,1
1582,40,-0.802800,-0.044306,0.006731,0.076561,1,1
1569,40,-0.851317,0.020280,0.098963,-0.004403,1,1
1637,41,-0.717293,-0.111693,-0.040774,0.065720,1,1
1631,41,-0.738682,-0.091790,-0.045038,-0.043782,1,1
1608,41,-0.770537,-0.043271,0.113464,0.115455,1,1
1601,41,-0.652750,-0.021437,0.130798,0.026055,1,1
1621,41,-0.798801,-0.100967,-0.006000,0.092516,1,1
1629,41,-0.661708,-0.048867,0.058455,0.021498,1,1
1635,41,-0.727839,-0.144931,0.074800,0.126045,0,1
1616,41,-0.705913,0.020444,0.095930,-0.018334,1,1
1622,41,-0.715752,-0.094018,-0.046138,0.102275,1,1
1632,41,-0.771386,-0.046483,0.049897,0.071055,1,1
1628,41,-0.705690,-0.045782,-0.017062,0.133401,1,1
1615,41,-0.838929,-0.013167,0.204350,-0.027826,1,1
1600,41,-0.790842,0.026895,0.062603,0.138906,1,1
1626,41,-0.644721,-0.064201,-0.028977,0.155439,0,1
1620,41,-0.800143,-0.072048,-0.030808,0.176984,1,1
1625,41,-0.781644,-0.000708,-0.120181,0.050164,1,1
1633,41,-0.691170,-0.058356,-0.026910,-0.007625,1,1
1617,41,-0.742795,0.000017,0.078957,0.132493,1,1
1604,41,-0.763690,0.035709,0.055546,0.089845,1,1
1619,41,-0.815584,-0.043959,0.114137,0.047757,1,1
1630,41,-0.776405,0.021068,-0.111489,0.043132,1,1
1618,41,-0.757689,-0.005394,0.134754,0.092862,1,1
1612,41,-0.739475,0.005488,0.087256,0.117362,1,1
1636,41,-0.733108,-0.053001,-0.023389,0.050354,1,1
1606,41,-0.800414,-0.001865,0.107478,0.110454,1,1
1602,41,-0.778297,-0.012765,0.080390,0.039131,1,1
1638,41,-0.684829,-0.013479,0.019532,0.168516,1,1
1624,41,-0.672525,-0.003839,-0.086211,0.092892,1,1
1607,41,-0.747083,-0.020708,0.124875,0.070575,1,1
1605,41,-0.921910,-0.060824,0.225321,-0.005438,1,0
1639,41,-0.750199,-0.114920,-0.014033,0.020569,1,1
1614,41,-0.818620,0.061473,0.164620,0.071517,1,1
1623,41,-0.766985,-0.034015,-0.025224,0.035339,1,1
1611,41,-0.721551,-0.012440,0.124450,0.050922,1,1
1613,41,-0.734640,-0.009140,0.056262,0.107207,1,1
1634,41,-0.770872,-0.085681,-0.024056,0.013052,1,1
1610,41,-0.700358,0.078513,0.221218,0.020372,1,1
1627,41,-0.708267,-0.099747,-0.088641,0.005009,1,1
1609,41,-0.810089,0.038217,0.149436,0.026474,1,1
1603,41,-0.750411,0.041608,0.248347,0.010446,1,1
1663,42,-0.725429,-0.167895,0.032044,0.062279,0,1
1656,42,-0.836734,0.012624,0.123688,0.047694,1,1
1658,42,-0.787312,-0.059161,0.090692,0.179350,1,1
1666,42,-0.793074,-0.035808,-0.004430,0.134879,1,1
1646,42,-0.787625,0.026540,0.098065,-0.007261,1,1
1652,42,-0.839593,0.066535,0.232416,0.017666,1,0
1674,42,-0.742509,-0.041102,0.026918,0.088066,1,1
1644,42,-0.915719,0.000335,0.000544,0.029568,1,0
1660,42,-0.698065,-0.076485,0.006531,0.065854,1,1
1641,42,-0.836762,-0.004841,0.141146,0.074063,1,1
1661,42,-0.767034,-0.011997,0.050590,0.112689,1,1
1667,42,-0.774899,-0.055390,-0.124111,0.118343,1,1
1672,42,-0.707713,-0.009102,0.008844,0.177983,1,1
1668,42,-0.638822,-0.121614,-0.041695,0.057383,0,1
1643,42,-0.813027,0.044483,0.213559,-0.026079,1,1
1649,42,-0.849307,-0.013214,0.101147,0.007965,1,1
1647,42,-0.802951,0.021122,0.100043,0.045769,1,1
1675,42,-0.638682,-0.090933,-0.036591,0.024742,0,1
1653,42,-0.791423,0.057515,0.050523,0.101889,1,1
1664,42,-0.773846,0.000669,-0.081372,0.085185,1,1
1642,42,-0.814323,0.021323,0.167820,-0.006732,1,1
1669,42,-0.767862,-0.125612,-0.141330,0.080943,1,1
1676,42,-0.751422,-0.046512,-0.143206,0.039513,1,1
1654,42,-0.824567,0.006590,0.199474,0.101563,1,1
1677,42,-0.703424,-0.101024,-0.059036,0.132586,1,1
1673,42,-0.778999,-0.026378,-0.026755,0.125514,1,1
1679,42,-0.806837,-0.024435,0.007723,-0.002858,1,1
1662,42,-0.771404,-0.031941,0.016649,0.070940,1,1
1659,42,-0.847769,0.057016,0.121823,0.089034,1,0
1651,42,-0.716844,0.037329,0.139804,0.187289,1,1
1640,42,-0.637224,-0.025776,0.112756,0.089062,1,1
1645,42,-0.699737,-0.011412,0.174611,0.150779,1,1
1678,42,-0.811283,-0.094447,0.043869,0.026052,1,1
1648,42,-0.712799,-0.050725,0.072233,0.089229,1,1
1670,42,-0.775646,-0.091593,-0.009953,0.038939,1,1
1671,42,-0.734664,0.010075,-0.054056,0.126522,1,1
1665,42,-0.731378,0.013379,0.032791,0.102357,1,1
1657,42,-0.737978,0.044341,0.129175,0.141450,1,1
1650,42,-0.783119,0.006829,0.124787,0.071351,1,1
1655,42,-0.764968,0.043068,0.121300,0.055129,1,1
1710,43,-0.725437,-0.017276,0.039214,0.099661,1,1
1680,43,-0.672750,0.049595,0.093657,0.028824,1,1
1706,43,-0.787227,-0.033999,-0.006781,0.082865,1,1
1697,43,-0.779044,-0.098302,0.046230,0.038115,1,1
1689,43,-0.818974,0.066867,0.202483,0.031338,1,1
1699,43,-0.809811,-0.144931,0.167518,0.073667,1,1
1712,43,-0.669306,-0.107375,0.030968,0.131525,0,1
1696,43,-0.773898,0.013047,0.217268,0.094357,1,1
1684,43,-0.813812,-0.090799,0.172464,0.108485,1,1
1683,43,-0.788708,-0.054877,0.207615,0.037540,1,1
1708,43,-0.676808,-0.027369,-0.042339,0.101319,1,1
1716,43,-0.759046,0.052218,-0.099909,0.072142,1,1
1713,43,-0.768388,0.023932,0.047682,0.040196,1,1
1715,43,-0.827256,-0.014930,-0.052522,0.024235,1,1
1695,43,-0.832794,-0.053871,0.248478,0.051946,1,1
1714,43,-0.778925,-0.086879,-0.056379,0.115376,1,1
1686,43,-0.705707,-0.024905,0.062403,0.059607,1,1
1682,43,-0.860394,0.020184,0.136158,0.105817,1,1
1711,43,-0.687388,-0.088372,0.030935,0.118927,1,1
1707,43,-0.801836,-0.187937,0.033379,0.132393,0,1
1717,43,-0.623130,-0.077791,-0.038455,0.064413,0,1
1681,43,-0.822558,0.012362,0.137595,0.058309,1,1
1718,43,-0.698556,-0.067906,-0.002537,0.090574,1,1
1688,43,-0.897797,0.014315,0.101998,0.042838,1,0
1719,43,-0.714588,0.070287,-0.018240,0.069037,1,1
1703,43,-0.768918,-0.151194,0.056676,0.046623,0,1
1709,43,-0.685942,-0.059310,0.045901,0.199765,1,1
1701,43,-0.708200,-0.072968,-0.031164,0.094311,1,1
1702,43,-0.723857,-0.101362,-0.125366,0.081346,1,1
1685,43,-0.812747,0.112337,0.140320,0.076057,1,0
1687,43,-0.783218,0.033811,0.114439,0.023916,1,1
1690,43,-0.801857,-0.087859,0.193242,0.051043,1,1
1700,43,-0.666980,-0.107294,0.041883,0.109014,0,1
1704,43,-0.739045,-0.024427,-0.050272,0.127172,1,1
1692,43,-0.682629,0.028204,0.148478,0.149087,1,1
1694,43,-0.773234,0.037862,0.112352,0.090025,1,1
1698,43,-0.757631,0.049664,0.159190,0.068489,1,1
1691,43,-0.742058,0.029350,0.091030,0.082940,1,1
1705,43,-0.723578,-0.047719,-0.013815,0.113686,1,1
1693,43,-0.746289,0.065481,0.116948,0.027745,1,1
1734,44,-0.833151,-0.021123,0.138499,0.155883,1,1
1731,44,-0.793630,0.081148,0.085646,0.100490,1,1
1724,44,-0.761867,0.021341,0.120646,0.119548,1,1
1751,44,-0.637527,-0.148003,0.007514,0.114712,0,1
1758,44,-0.743209,-0.089710,-0.112362,0.130763,1,1
1728,44,-0.804614,0.071427,0.202698,0.062458,1,1
1722,44,-0.811015,0.060261,0.133080,0.052021,1,1
1720,44,-0.736302,-0.049875,0.171404,0.094533,1,1
1753,44,-0.733423,-0.028943,0.038003,0.034588,1,1
1723,44,-0.727836,0.045535,0.230567,0.079788,1,1
1741,44,-0.706609,-0.003494,-0.036540,0.019956,1,1
1737,44,-0.758334,0.079284,0.168702,0.063645,1,1
1740,44,-0.654078,0.021534,-0.037403,0.089611,1,1
1736,44,-0.759202,0.062477,0.161807,0.054164,1,1
1725,44,-0.761737,0.074469,0.149642,0.026803,1,1
1742,44,-0.815126,-0.046293,-0.077525,0.030571,1,1
1756,44,-0.754346,-0.040310,0.036826,0.042557,1,1
1727,44,-0.869533,0.036335,0.140868,0.102040,1,0
1743,44,-0.753247,-0.032400,-0.027459,0.099154,1,1
1735,44,-0.737396,-0.062134,0.166376,-0.006456,1,1
1752,44,-0.744763,0.003965,-0.066341,0.129210,1,1
1730,44,-0.697887,-0.039774,0.198787,0.044890,1,1
1738,44,-0.692575,0.012517,0.178376,0.076002,1,1
1748,44,-0.816448,-0.145220,-0.038179,0.089650,1,1
1744,44,-0.751449,-0.048144,0.049661,0.081247,1,1
1733,44,-0.715171,0.000863,0.133242,0.056290,1,1
1747,44,-0.674760,-0.084631,-0.014770,-0.030185,1,1
1745,44,-0.756491,0.006442,-0.032123,0.062097,1,1
1729,44,-0.725661,0.018237,0.155504,0.054634,1,1
1750,44,-0.761493,-0.066996,-0.053947,0.047881,1,1
1739,44,-0.792840,0.056410,0.071289,0.099711,1,1
1755,44,-0.788786,-0.019672,-0.027210,0.077698,1,1
1726,44,-0.804805,0.078886,0.155787,0.181435,1,1
1732,44,-0.838430,0.053660,0.132980,0.188152,1,1
1757,44,-0.701475,0.010981,0.016298,0.154626,1,1
1749,44,-0.745696,-0.003928,0.007950,0.119075,1,1
1721,44,-0.780001,-0.042641,0.093645,0.080898,1,1
1759,44,-0.709463,-0.106925,-0.030420,0.008677,1,1
1746,44,-0.722957,-0.040720,-0.087102,0.041741,1,1
1754,44,-0.769772,-0.055206,-0.110844,0.133022,1,1
1794,45,-0.780240,-0.036942,0.005170,0.098598,1,1
1778,45,-0.667576,0.035117,0.138836,0.090096,1,1
1769,45,-0.826591,-0.027897,0.147391,0.070857,1,1
1799,45,-0.743412,-0.021535,0.063470,0.093536,1,1
1774,45,-0.806055,-0.001579,0.114548,0.017334,1,1
1791,45,-0.817972,-0.090207,-0.022305,0.151954,1,1
1790,45,-0.719090,-0.034476,0.002287,0.020794,1,1
1770,45,-0.814208,0.022080,-0.008417,0.048311,1,1
1761,45,-0.747102,-0.013509,0.084322,0.086675,1,1
1773,45,-0.869186,-0.035676,0.093965,0.067186,1,1
1785,45,-0.728257,-0.077572,-0.027631,0.077109,1,1
1767,45,-0.750038,-0.030203,0.104474,0.056904,1,1
1776,45,-0.714807,0.031848,0.008963,0.073204,1,1
1762,45,-0.780771,0.006092,0.029862,0.108942,1,1
1787,45,-0.725962,-0.092236,0.039349,0.090591,1,1
1764,45,-0.771207,-0.023113,0.163420,0.099877,1,1
1763,45,-0.748611,0.002515,0.145204,0.073109,1,1
1765,45,-0.785846,-0.014081,0.085233,0.054033,1,1
1786,45,-0.696065,0.034752,-0.020451,0.039837,1,1
1777,45,-0.794179,-0.046253,0.178406,0.087886,1,1
1766,45,-0.756036,-0.019011,0.028959,0.122521,1,1
1782,45,-0.750733,-0.013470,0.006972,0.080073,1,1
1798,45,-0.788194,-0.013608,0.002837,0.067045,1,1
1779,45,-0.805740,-0.005664,0.183357,0.135118,1,1
1784,45,-0.810861,0.015140,-0.005635,0.115112,1,1
1783,45,-0.762010,-0.031263,0.017973,0.131541,1,1
1760,45,-0.792239,0.035472,0.060099,0.059670,1,1
1781,45,-0.729973,-0.127277,-0.027216,-0.013757,1,1
1789,45,-0.721376,-0.087151,-0.075561,0.205456,1,1
1795,45,-0.771347,0.022120,-0.121441,0.071588,1,1
1792,45,-0.706731,-0.070156,-0.000598,0.032909,1,1
1768,45,-0.794905,0.052262,0.081526,0.037299,1,1
1771,45,-0.768012,0.014789,0.214248,0.067511,1,1
1780,45,-0.729237,-0.043554,-0.012131,-0.009599,1,1
1775,45,-0.737821,-0.018697,0.138628,0.051912,1,1
1788,45,-0.705652,-0.064005,-0.021506,0.073419,1,1
1793,45,-0.719967,0.022292,0.001692,0.111347,1,1
1772,45,-0.805147,-0.006059,0.117606,0.140331,1,1
1797,45,-0.752604,-0.075165,0.022399,-0.015174,1,1
1796,45,-0.782322,-0.101386,-0.007618,0.116861,1,1
1830,46,-0.670908,-0.119889,-0.091958,0.101579,0,1
1804,46,-0.757008,0.064065,0.133267,0.024087,1,1
1810,46,-0.745802,-0.020334,0.070540,0.076267,1,1
1825,46,-0.806113,-0.035998,-0.008324,-0.021174,1,1
1814,46,-0.810635,0.026903,0.135459,0.074408,1,1
1827,46,-0.770974,-0.058546,-0.070765,0.174469,1,1
1811,46,-0.762664,-0.038333,0.121629,0.090183,1,1
1835,46,-0.710515,-0.039673,0.015644,0.136119,1,1
1809,46,-0.811198,-0.044172,0.154640,0.036284,1,1
1802,46,-0.769526,-0.003355,0.210876,0.120417,1,1
1820,46,-0.721612,0.000903,0.023777,0.103890,1,1
1816,46,-0.815712,0.051860,0.086608,0.121617,1,1
1812,46,-0.759271,0.027080,0.111228,-0.022998,1,1
1805,46,-0.715586,0.027700,0.159917,0.146287,1,1
1834,46,-0.838283,0.023572,-0.032728,0.089841,1,1
1806,46,-0.778112,-0.009728,0.170643,-0.004591,1,1
1832,46,-0.739585,-0.090671,-0.025988,0.053871,1,1
1813,46,-0.824790,-0.019791,0.127001,0.029395,1,1
1808,46,-0.820500,-0.100520,0.126069,0.072245,1,1
1801,46,-0.847702,0.004758,0.130589,0.024117,1,1
1826,46,-0.709163,-0.142209,0.017768,0.133241,0,1
1803,46,-0.799503,-0.062884,0.139137,0.043292,1,1
1815,46,-0.820625,0.063425,0.168822,0.170408,1,1
1837,46,-0.698970,-0.029164,-0.105140,0.050810,1,1
1831,46,-0.667598,-0.008715,-0.039955,0.044269,1,1
1839,46,-0.748814,-0.103724,-0.033621,0.048248,1,1
1823,46,-0.753314,-0.133533,0.031498,0.134358,1,1
1829,46,-0.765692,-0.022032,0.026417,0.021591,1,1
1817,46,-0.826401,0.010476,0.061575,0.059863,1,1
1800,46,-0.796439,-0.037288,0.141586,0.069751,1,1
1818,46,-0.786912,0.003776,0.165114,0.079332,1,1
1828,46,-0.753754,-0.008521,-0.064954,0.077489,1,1
1838,46,-0.786743,-0.099114,-0.072396,0.099058,1,1
1807,46,-0.690872,0.056228,0.164453,0.059846,1,1
1819,46,-0.793536,-0.034162,0.158621,0.077664,1,1
1833,46,-0.716266,-0.041332,0.048208,0.103307,1,1
1824,46,-0.760515,-0.087765,0.013007,0.138503,1,1
1836,46,-0.743632,-0.000270,-0.034287,0.083419,1,1
1822,46,-0.762479,-0.006868,-0.004089,0.034274,1,1
1821,46,-0.760570,-0.061969,0.005317,0.057624,1,1
1866,47,-0.772304,-0.025536,0.062027,0.119693,1,1
1860,47,-0.703837,-0.092028,-0.088819,0.089996,1,1
1879,47,-0.715253,-0.085297,0.035148,0.098580,1,1
1852,47,-0.754161,-0.001651,0.154686,0.121965,1,1
1863,47,-0.770235,-0.043615,0.021715,0.046286,1,1
1867,47,-0.765011,-0.050191,0.000159,0.000434,1,1
1868,47,-0.769729,-0.109196,-0.081205,0.112061,1,1
1841,47,-0.780825,0.015953,0.084611,0.076545,1,1
1874,47,-0.781460,-0.056421,-0.016035,0.123325,1,1
1870,47,-0.819330,-0.097422,-0.070101,0.072437,1,1
1853,47,-0.841949,0.043240,0.100214,0.103657,1,1
1840,47,-0.797705,0.027398,0.093999,-0.041622,1,1
1848,47,-0.795218,-0.083687,0.048101,0.138670,1,1
1854,47,-0.811782,-0.045120,0.153328,0.076210,1,1
1876,47,-0.723085,-0.061802,-0.004973,0.145495,1,1
1859,47,-0.762882,-0.001563,0.173977,0.176446,1,1
1847,47,-0.838557,-0.001122,0.123556,0.077596,1,1
1856,47,-0.713179,-0.021492,0.236451,0.035918,1,1
1842,47,-0.677748,-0.029290,0.198823,-0.021674,1,1
1855,47,-0.743546,-0.025410,0.054531,0.106199,1,1
1869,47,-0.718478,0.001009,0.014709,0.065365,1,1
1864,47,-0.684573,-0.062351,-0.040536,0.100068,1,1
1844,47,-0.797628,0.033694,0.175728,0.092701,1,1
1865,47,-0.823798,-0.036364,-0.001464,0.101088,1,1
1850,47,-0.805254,-0.038836,0.128303,0.029480,1,1
1857,47,-0.790173,-0.016981,0.055734,0.071194,1,1
1877,47,-0.681111,-0.098305,0.040130,0.021008,1,1
1861,47,-0.694672,-0.042759,-0.047758,0.050909,1,1
1878,47,-0.737467,0.007899,-0.033295,0.058389,1,1
1871,47,-0.780765,0.016329,0.057370,0.063264,1,1
1843,47,-0.754927,-0.017523,0.115863,0.081926,1,1
1862,47,-0.796382,0.016460,-0.054721,-0.019207,1,1
1851,47,-0.797106,-0.030132,0.121256,0.080318,1,1
1858,47,-0.743489,0.050530,0.179558,0.109902,1,1
1875,47,-0.696397,-0.038799,-0.055282,0.056189,1,1
1849,47,-0.801886,0.043645,0.158080,0.065695,1,1
1846,47,-0.794861,0.056757,0.045084,0.096547,1,1
1845,47,-0.787248,0.034198,0.191834,0.133236,1,1
1872,47,-0.818464,-0.103588,-0.011223,0.032811,1,1
1873,47,-0.664476,0.007364,-0.015480,-0.019412,1,1
1914,48,-0.759124,-0.031172,0.029964,0.057001,1,1
1889,48,-0.735595,-0.066988,0.205336,0.107208,1,1
1882,48,-0.816031,0.022560,0.198341,0.159399,1,1
1885,48,-0.736713,-0.011308,0.242051,0.111106,1,1
1901,48,-0.668782,-0.000347,-0.058772,0.122112,1,1
1919,48,-0.726557,-0.083707,-0.039572,0.046852,1,1
1918,48,-0.841100,0.012993,-0.017980,0.142128,1,1
1888,48,-0.831366,0.097877,0.089466,0.005664,1,0
1893,48,-0.835245,0.070304,0.079874,0.067112,1,0
1912,48,-0.729143,0.084156,0.008420,0.052507,1,1
1896,48,-0.691484,-0.020254,0.053146,0.036828,1,1
1890,48,-0.730635,-0.021461,0.091723,0.067104,1,1
1909,48,-0.699557,-0.021586,-0.090187,0.102371,1,1
1910,48,-0.768647,-0.009905,-0.097573,0.077226,1,1
1905,48,-0.678119,-0.033180,0.024617,0.067254,1,1
1917,48,-0.705536,0.032025,-0.001972,0.120363,1,1
1916,48,-0.775035,-0.009836,0.011104,0.056972,1,1
1900,48,-0.768684,-0.096748,0.050480,0.011430,1,1
1899,48,-0.840139,-0.000670,0.129701,0.093596,1,1
1881,48,-0.900924,-0.055062,0.197295,0.059022,1,0
1891,48,-0.807952,0.003143,0.117474,0.035612,1,1
1898,48,-0.789396,-0.013057,0.106871,0.078137,1,1
1907,48,-0.750487,-0.062151,-0.096321,0.120193,1,1
1913,48,-0.655460,0.012783,-0.002418,0.102392,1,1
1884,48,-0.843553,0.066386,0.144037,0.019550,1,0
1908,48,-0.788229,-0.110138,0.025099,0.083095,1,1
1883,48,-0.782967,0.051584,0.110542,0.071483,1,1
1892,48,-0.768437,0.001202,0.160209,0.126897,1,1
1904,48,-0.686130,0.011442,-0.043937,0.160696,1,1
1886,48,-0.774954,0.016837,0.234710,0.125139,1,1
1903,48,-0.697312,0.008605,-0.004493,0.020548,1,1
1894,48,-0.757470,0.085005,0.124485,0.081414,1,1
1897,48,-0.780926,0.009290,0.093581,0.135598,1,1
1902,48,-0.782698,-0.069941,-0.073772,0.164337,1,1
1887,48,-0.815295,-0.012405,0.112627,0.108238,1,1
1880,48,-0.721919,0.016036,0.147812,0.118174,1,1
1915,48,-0.744518,-0.113004,0.011909,0.047066,1,1
1906,48,-0.708167,-0.155023,-0.036645,0.086990,0,1
1911,48,-0.760655,-0.147106,-0.034742,0.105942,1,1
1895,48,-0.771443,0.051626,0.103982,0.163422,1,1
1920,49,-0.759532,0.001970,0.129394,-0.028563,1,1
1937,49,-0.788980,-0.056699,0.130492,0.061101,1,1
1946,49,-0.785784,0.007535,-0.007842,0.113947,1,1
1955,49,-0.848823,0.040035,0.004575,0.012962,1,1
1925,49,-0.816847,-0.012436,0.105180,0.032400,1,1
1933,49,-0.800413,0.061192,0.135349,0.065509,1,1
1959,49,-0.719244,-0.019536,-0.008682,0.088837,1,1
1930,49,-0.870391,-0.048821,0.188834,0.004771,1,1
1931,49,-0.801706,0.065509,0.156804,0.224675,1,1
1922,49,-0.694226,0.047032,0.033161,0.094289,1,1
1954,49,-0.765803,-0.016842,-0.045271,0.107969,1,1
1923,49,-0.778127,0.079716,0.043407,0.042258,1,1
1927,49,-0.837330,-0.011697,0.163557,0.088497,1,1
1956,49,-0.719601,0.028406,-0.045755,0.056670,1,1
1953,49,-0.790133,-0.017605,-0.076479,-0.006220,1,1
1948,49,-0.792594,-0.073148,-0.051386,0.091403,1,1
1949,49,-0.707559,-0.063746,0.022506,0.143524,1,1
1951,49,-0.806387,-0.052277,-0.051476,0.088326,1,1
1947,49,-0.855289,-0.078500,-0.045416,0.100195,1,1
1944,49,-0.706070,-0.097441,-0.075787,0.087700,1,1
1942,49,-0.745226,-0.014488,-0.025007,0.026368,1,1
1929,49,-0.779674,-0.014452,0.167847,0.055022,1,1
1939,49,-0.778766,-0.024646,0.050503,0.103635,1,1
1928,49,-0.688240,-0.056515,0.116613,0.068066,1,1
1957,49,-0.712566,-0.129787,-0.026024,0.087036,1,1
1952,49,-0.735638,-0.005816,0.051889,0.137833,1,1
1950,49,-0.775712,-0.050056,-0.030777,0.123999,1,1
1945,49,-0.744365,-0.093684,0.019766,0.068500,1,1
1921,49,-0.796850,-0.014054,0.249822,0.187677,1,1
1932,49,-0.690940,0.060409,0.189804,0.057175,1,1
1941,49,-0.698013,0.028065,-0.052855,0.084591,1,1
1943,49,-0.748799,-0.122908,-0.034055,0.059506,1,1
1936,49,-0.775242,-0.024340,0.132554,0.047882,1,1
1935,49,-0.806994,-0.059770,0.177977,0.167202,1,1
1934,49,-0.755678,0.015545,0.160388,0.049856,1,1
1940,49,-0.766848,-0.050549,-0.023248,0.075176,1,1
1958,49,-0.645999,-0.088890,-0.003551,0.140863,0,1
1926,49,-0.804929,-0.103758,0.183627,0.064215,1,1
1938,49,-0.822324,-0.009204,0.084526,0.044864,1,1
1924,49,-0.781407,0.001279,0.126494,0.165038,1,1
1994,50,-0.758813,-0.095144,-0.060351,0.102439,1,1
1975,50,-0.796396,-0.037345,0.096251,0.012561,1,1
1976,50,-0.772343,-0.012701,-0.005863,0.061319,1,1
1964,50,-0.774397,-0.078294,0.039079,0.031993,1,1
1990,50,-0.754964,-0.034486,-0.041985,0.240163,1,1
1988,50,-0.719299,-0.086994,0.064872,0.087066,1,1
1973,50,-0.891226,-0.076299,-0.003180,0.023412,1,0
1996,50,-0.770584,-0.104148,0.015754,0.102405,1,1
1987,50,-0.833651,0.047006,-0.067659,0.132348,1,1
1980,50,-0.787740,-0.129467,-0.118358,0.075811,1,1
1998,50,-0.666115,-0.088986,-0.011712,0.100510,1,1
1982,50,-0.728250,0.033491,0.029910,0.123787,1,1
1992,50,-0.761292,-0.054682,0.023859,0.128498,1,1
1968,50,-0.818329,0.010945,0.026280,0.067589,1,1
1978,50,-0.830589,0.051060,0.011556,0.100483,1,1
1972,50,-0.754839,0.029525,0.091766,0.045223,1,1
1963,50,-0.782200,0.021012,0.001988,0.083131,1,1
1961,50,-0.785878,-0.033656,0.085623,0.133498,1,1
1969,50,-0.898455,-0.017432,0.048036,0.139478,1,0
1999,50,-0.778302,-0.088540,-0.022555,0.073743,1,1
1966,50,-0.872752,-0.016453,0.050109,0.097326,1,1
1985,50,-0.727300,-0.007267,-0.070654,0.153781,1,1
1993,50,-0.715338,-0.014596,-0.045266,0.101232,1,1
1995,50,-0.791782,-0.007673,-0.077101,0.146868,1,1
1986,50,-0.638283,0.017893,-0.035084,0.190107,1,1
1977,50,-0.811299,0.012007,-0.032022,0.079709,1,1
1991,50,-0.784878,-0.104747,-0.056774,0.061297,1,1
1967,50,-0.899569,0.068475,0.044485,0.102847,1,0
1983,50,-0.665845,-0.041028,-0.055101,0.139216,1,1
1979,50,-0.833889,-0.041447,0.050302,0.052346,1,1
1960,50,-0.836498,-0.076831,0.035957,0.149483,1,1
1962,50,-0.696496,-0.029210,0.081791,0.106256,1,1
1971,50,-0.730292,-0.114565,0.023817,0.071873,1,1
1965,50,-0.730297,0.002512,-0.009548,0.056949,1,1
1984,50,-0.781625,-0.094101,-0.030917,0.115109,1,1
1970,50,-0.749540,0.082726,0.075991,0.107981,1,1
1989,50,-0.785893,-0.120086,-0.061334,0.030477,1,1
1997,50,-0.738801,-0.063415,-0.041896,0.064793,1,1
1974,50,-0.798614,0.022785,-0.028974,0.123594,1,1
1981,50,-0.800890,0.012617,-0.044319,0.156442,1,1
2011,51,-0.821906,0.027464,-0.040115,-0.042083,1,1
2038,51,-0.640498,-0.033151,0.008485,0.066742,1,1
2004,51,-0.788581,0.011312,0.098389,0.016347,1,1
2024,51,-0.690421,-0.047176,0.014627,0.033080,1,1
2034,51,-0.789139,-0.045602,-0.029756,0.046068,1,1
2037,51,-0.817024,-0.069090,-0.065521,0.047838,1,1
2027,51,-0.688157,0.009996,-0.039684,0.069903,1,1
2026,51,-0.723622,-0.080035,-0.017735,0.165552,1,1
2022,51,-0.737885,-0.095574,0.027623,0.063856,1,1
2016,51,-0.781652,0.087047,0.125314,0.126961,1,1
2019,51,-0.830401,-0.008466,0.030762,0.005809,1,1
2029,51,-0.823188,-0.031816,-0.011910,0.176398,1,1
2014,51,-0.816698,-0.081908,-0.022056,0.018595,1,1
2000,51,-0.812747,0.004670,0.112005,0.046481,1,1
2018,51,-0.734847,-0.042180,0.032358,0.059328,1,1
2023,51,-0.706320,-0.108407,-0.007055,0.119127,1,1
2015,51,-0.883525,0.000503,0.104995,0.021451,1,0
2033,51,-0.650216,-0.084833,0.082548,0.103190,0,1
2008,51,-0.758589,-0.001153,0.002896,0.012179,1,1
2036,51,-0.776891,0.013656,-0.029573,0.156340,1,1
2039,51,-0.760734,0.013542,0.030352,0.073092,1,1
2005,51,-0.692310,-0.035825,0.064874,-0.002860,1,1
2010,51,-0.770440,-0.019794,-0.076007,0.085816,1,1
2006,51,-0.813707,0.056010,0.009412,0.039712,1,1
2001,51,-0.808003,-0.057773,0.009253,0.125594,1,1
2035,51,-0.786078,-0.060627,-0.013830,-0.015839,1,1
2025,51,-0.717307,-0.076313,0.045670,0.066858,1,1
2031,51,-0.760060,0.001000,0.022162,0.124061,1,1
2032,51,-0.783542,0.034012,-0.026078,0.131581,1,1
2009,51,-0.727915,0.009121,0.046947,0.056749,1,1
2028,51,-0.676933,-0.142564,0.095186,0.110695,0,1
2020,51,-0.652240,-0.149300,-0.014745,0.121963,0,1
2002,51,-0.756250,-0.008252,0.010723,0.118652,1,1
2013,51,-0.738502,0.019808,0.076119,0.058766,1,1
2007,51,-0.728120,0.001705,0.083278,-0.015355,1,1
2017,51,-0.724248,0.036203,0.050473,0.017537,1,1
2021,51,-0.751670,-0.084299,0.008866,0.040006,1,1
2012,51,-0.828435,-0.039310,-0.002024,0.132357,1,1
2003,51,-0.719155,0.005016,0.001117,0.184400,1,1
2030,51,-0.801452,0.027945,-0.083095,0.173872,1,1
2044,52,-0.767471,-0.014414,0.023839,0.085324,1,1
2070,52,-0.640310,0.007602,0.000399,0.119975,1,1
2050,52,-0.797015,-0.005964,0.045508,0.051373,1,1
2079,52,-0.731714,-0.056128,-0.068694,0.044534,1,1
2072,52,-0.756658,-0.071891,-0.059050,0.060577,1,1
2051,52,-0.761258,-0.045135,0.045172,0.046969,1,1
2064,52,-0.690675,-0.060910,-0.059455,0.146227,1,1
2069,52,-0.776940,-0.099349,-0.071831,-0.007625,1,1
2077,52,-0.763170,-0.026010,0.043192,0.179510,1,1
2058,52,-0.803081,0.080812,0.064218,0.041003,1,1
2067,52,-0.736701,-0.017534,0.052616,0.024673,1,1
2048,52,-0.832459,-0.004865,0.041626,0.113287,1,1
2066,52,-0.700107,-0.111286,-0.020744,0.074609,1,1
2043,52,-0.802211,-0.060932,0.004037,-0.015250,1,1
2052,52,-0.639793,-0.038699,0.101698,0.040731,1,1
2063,52,-0.809153,-0.015400,-0.045107,0.085029,1,1
2060,52,-0.734586,-0.052666,-0.049974,0.071546,1,1
2055,52,-0.790389,-0.030455,-0.019619,0.094396,1,1
2071,52,-0.741836,-0.035574,-0.030784,0.040815,1,1
2040,52,-0.810181,-0.142694,0.009637,0.118064,1,1
2041,52,-0.764380,-0.005017,0.038249,0.043354,1,1
2042,52,-0.796011,-0.006494,0.056937,0.099757,1,1
2057,52,-0.727333,-0.034033,-0.021214,0.091470,1,1
2046,52,-0.748121,-0.040995,0.028914,-0.033509,1,1
2054,52,-0.747559,0.050394,0.017880,0.009172,1,1
2059,52,-0.849096,-0.054495,-0.048742,0.060960,1,1
2075,52,-0.733469,-0.034374,0.024283,0.102347,1,1
2068,52,-0.758751,-0.018978,-0.009667,0.087765,1,1
2047,52,-0.793100,0.012331,0.001755,0.091279,1,1
2065,52,-0.653998,0.028067,-0.064006,0.095997,1,1
2061,52,-0.703134,-0.084097,0.009397,0.069349,1,1
2076,52,-0.753923,0.037513,-0.019750,-0.015745,1,1
2078,52,-0.788904,-0.048848,0.065533,0.182789,1,1
2074,52,-0.770104,-0.023831,-0.032634,0.020953,1,1
2053,52,-0.731479,-0.088178,0.036206,0.167387,1,1
2062,52,-0.710025,-0.011803,-0.068807,0.036278,1,1
2045,52,-0.795881,0.005257,-0.024976,0.041941,1,1
2073,52,-0.770130,-0.028787,0.005658,0.006755,1,1
2049,52,-0.758013,0.045751,0.073072,0.065281,1,1
2056,52,-0.834783,0.014274,0.070749,0.104887,1,1
2115,53,-0.705886,-0.024114,-0.007042,0.184427,1,1
2096,53,-0.789093,0.006090,0.080670,0.133856,1,1
2103,53,-0.809532,0.001566,-0.028901,0.151952,1,1
2093,53,-0.751270,0.000924,-0.016944,0.085628,1,1
2082,53,-0.826568,0.069115,0.085443,0.104033,1,1
2091,53,-0.771799,0.109835,0.128505,0.068346,1,0
2114,53,-0.803352,-0.059279,-0.028953,0.107057,1,1
2085,53,-0.824417,-0.040255,0.043564,0.077148,1,1
2089,53,-0.778778,0.023697,0.062225,0.040300,1,1
2092,53,-0.738389,-0.019614,0.054569,0.058787,1,1
2108,53,-0.780546,-0.013972,-0.009531,-0.007765,1,1
2102,53,-0.816851,-0.049737,0.011462,0.176356,1,1
2098,53,-0.830205,0.015399,0.053372,0.045980,1,1
2080,53,-0.773045,0.033308,-0.001428,0.039316,1,1
2083,53,-0.714172,-0.055731,0.080180,0.036644,1,1
2106,53,-0.771542,-0.050299,0.030196,0.187172,1,1
2109,53,-0.772022,0.010539,-0.094685,0.080003,1,1
2087,53,-0.771561,-0.043327,-0.002296,0.067956,1,1
2088,53,-0.835555,-0.029272,0.054852,0.044594,1,1
2084,53,-0.712520,0.070275,0.002079,0.042229,1,1
2116,53,-0.737123,-0.089124,-0.024222,0.092879,1,1
2105,53,-0.687725,0.020420,-0.136947,0.100861,1,1
2117,53,-0.819197,-0.032751,-0.013189,0.061297,1,1
2081,53,-0.800338,-0.074214,0.114039,0.149919,1,1
2111,53,-0.790106,-0.041258,-0.056853,0.088394,1,1
2112,53,-0.789858,-0.057587,0.076770,0.117203,1,1
2094,53,-0.790372,0.010873,-0.008449,0.036695,1,1
2113,53,-0.715324,0.006710,-0.054068,0.002941,1,1
2095,53,-0.813912,-0.070360,0.057944,0.072562,1,1
2119,53,-0.722256,-0.079019,0.015594,0.057377,1,1
2101,53,-0.775138,0.027904,-0.045559,0.058174,1,1
2086,53,-0.672993,-0.011181,0.010007,0.031476,1,1
2107,53,-0.771721,-0.057031,0.015932,0.045505,1,1
2104,53,-0.733113,-0.081936,-0.045346,0.011031,1,1
2099,53,-0.820764,0.016393,0.131738,0.095229,1,1
2110,53,-0.796623,-0.024155,-0.062670,0.015910,1,1
2100,53,-0.787994,-0.117887,-0.141340,0.113978,1,1
2090,53,-0.801519,-0.053555,0.099305,0.146670,1,1
2118,53,-0.683970,-0.108129,-0.005139,0.088848,1,1
2097,53,-0.779218,0.034880,0.092332,0.101388,1,1
2139,54,-0.763399,0.019138,0.085187,0.072509,1,1
2134,54,-0.784374,0.022019,-0.015128,0.053095,1,1
2122,54,-0.720634,-0.026586,0.053471,0.069011,1,1
2135,54,-0.790262,-0.048980,0.073460,0.075043,1,1
2141,54,-0.760136,-0.114102,0.040504,0.084139,1,1
2158,54,-0.744171,0.005695,-0.074993,0.042253,1,1
2130,54,-0.701744,-0.013318,0.013614,0.066015,1,1
2152,54,-0.740892,-0.044339,0.144048,0.008454,1,1
2128,54,-0.839398,0.033454,0.022631,0.136200,1,1
2154,54,-0.721421,-0.143460,0.038346,0.117509,0,1
2132,54,-0.822471,0.062273,-0.009094,0.115830,1,1
2144,54,-0.798008,-0.061882,-0.021872,0.163189,1,1
2149,54,-0.775068,-0.078656,-0.009337,0.071729,1,1
2145,54,-0.682725,0.001519,-0.007423,-0.053346,1,1
2136,54,-0.762112,-0.002855,0.073031,0.069604,1,1
2153,54,-0.817408,-0.029554,-0.057548,0.090801,1,1
2123,54,-0.781482,0.027862,-0.000723,0.119787,1,1
2143,54,-0.763923,-0.103566,-0.058359,0.054514,1,1
2131,54,-0.818232,-0.018430,0.083893,0.064367,1,1
2120,54,-0.846712,0.047192,-0.044188,0.045896,1,1
2140,54,-0.744095,0.030987,-0.018492,0.107628,1,1
2147,54,-0.784332,-0.034520,-0.042178,0.107090,1,1
2159,54,-0.726255,-0.070367,-0.036614,0.028720,1,1
2146,54,-0.704959,-0.026663,-0.023609,0.091725,1,1
2155,54,-0.663436,0.015030,-0.038703,-0.009830,1,1
2138,54,-0.761895,-0.005966,0.018768,0.015975,1,1
2142,54,-0.664683,-0.068554,-0.031545,0.096842,1,1
2133,54,-0.726285,0.014650,0.002406,0.054604,1,1
2127,54,-0.910288,0.031522,0.107767,0.098328,1,0
2157,54,-0.722053,-0.006025,0.055733,0.063435,1,1
2148,54,-0.668526,-0.112160,-0.097207,0.058227,0,1
2121,54,-0.735709,-0.088206,-0.036759,0.090223,1,1
2124,54,-0.796699,0.048005,0.086996,0.116929,1,1
2126,54,-0.743503,-0.054601,0.041478,0.116091,1,1
2150,54,-0.791760,-0.038248,0.070670,0.099313,1,1
2137,54,-0.813350,0.091531,-0.052403,0.034936,1,0
2156,54,-0.738274,-0.109412,-0.037396,0.065854,1,1
2125,54,-0.803189,0.016930,0.094549,0.051098,1,1
2151,54,-0.718634,-0.065850,0.022256,0.118332,1,1
2129,54,-0.761291,-0.053401,0.019181,0.016033,1,1
2183,55,-0.792838,-0.065922,-0.110677,0.012208,1,1
2190,55,-0.800371,-0.029968,-0.032590,0.082863,1,1
2194,55,-0.728998,-0.166220,0.052923,0.000670,0,1
2168,55,-0.833209,0.032974,0.039885,0.032035,1,1
2166,55,-0.747356,0.042519,0.041147,0.054373,1,1
2177,55,-0.747071,-0.011335,0.008439,0.095505,1,1
2199,55,-0.652080,0.000455,0.002338,0.047252,1,1
2174,55,-0.806968,-0.023492,-0.025878,0.100224,1,1
2170,55,-0.847963,0.019504,0.123840,0.141666,1,1
2196,55,-0.765182,-0.066342,-0.059888,0.081570,1,1
2176,55,-0.786021,0.028682,-0.011408,0.159785,1,1
2188,55,-0.709155,0.004416,-0.090882,0.099136,1,1
2192,55,-0.661617,-0.115433,0.104495,0.163934,0,1
2181,55,-0.692838,-0.064462,-0.018303,0.048074,1,1
2162,55,-0.800490,-0.036773,0.042502,0.113820,1,1
2163,55,-0.802438,-0.073318,0.046781,0.078665,1,1
2164,55,-0.809274,-0.068800,0.086626,0.142841,1,1
2171,55,-0.816566,-0.029788,0.042131,-0.030275,1,1
2180,55,-0.781902,0.024032,-0.080554,0.093835,1,1
2160,55,-0.791423,-0.039112,0.087015,0.071048,1,1
2191,55,-0.658548,-0.003913,0.054965,0.175856,1,1
2169,55,-0.838283,0.014213,0.056552,-0.013648,1,1
2161,55,-0.842742,-0.054506,0.076106,-0.065260,1,1
2165,55,-0.719959,-0.007164,0.024824,0.019493,1,1
2198,55,-0.685565,-0.159153,0.044205,0.034287,0,1
2167,55,-0.681810,-0.024389,0.022420,0.074362,1,1
2179,55,-0.767155,0.006839,0.001053,0.165857,1,1
2178,55,-0.857173,-0.048122,0.103123,0.160394,1,1
2195,55,-0.747621,-0.015564,-0.065632,0.110415,1,1
2185,55,-0.700759,0.024193,0.017032,0.112600,1,1
2193,55,-0.744474,-0.011914,0.054097,0.135471,1,1
2184,55,-0.692530,-0.006367,0.004052,0.066304,1,1
2182,55,-0.708013,-0.050050,-0.039340,0.058903,1,1
2173,55,-0.735083,-0.092253,-0.042876,0.031853,1,1
2172,55,-0.819459,-0.023511,0.019655,0.044864,1,1
2175,55,-0.754774,0.060196,0.092021,0.033976,1,1
2187,55,-0.770746,-0.100962,-0.031227,0.062870,1,1
2197,55,-0.733039,-0.005084,-0.102294,0.030170,1,1
2189,55,-0.753722,-0.045944,-0.095253,0.087353,1,1
2186,55,-0.689892,-0.044474,-0.025993,0.028535,1,1
2222,56,-0.657647,-0.009583,0.020386,0.078488,1,1
2204,56,-0.824759,0.019131,0.080492,0.108650,1,1
2206,56,-0.797274,0.000222,0.035269,0.004566,1,1
2228,56,-0.648350,-0.073038,-0.078270,-0.020340,0,1
2221,56,-0.703208,-0.106409,0.041916,0.153339,1,1
2234,56,-0.725546,-0.085034,-0.068302,0.020821,1,1
2207,56,-0.847514,0.059679,0.094651,-0.032140,1,0
2202,56,-0.707654,0.105373,0.071515,0.063604,1,0
2205,56,-0.788310,-0.018439,0.022751,0.129379,1,1
2213,56,-0.766637,-0.068029,-0.011981,0.084847,1,1
2215,56,-0.834521,-0.055501,-0.040872,0.032769,1,1
2220,56,-0.698824,-0.004525,0.017891,0.052525,1,1
2214,56,-0.744507,0.042735,0.106844,0.121751,1,1
2216,56,-0.727384,0.077283,-0.002602,0.005364,1,1
2218,56,-0.746337,0.027195,0.040118,0.095339,1,1
2236,56,-0.757436,-0.072085,0.016511,0.061148,1,1
2219,56,-0.882475,-0.067896,0.048120,0.090506,1,1
2200,56,-0.839291,0.035872,0.059782,0.110103,1,1
2217,56,-0.819615,-0.027215,0.074974,0.096632,1,1
2230,56,-0.703588,-0.003478,-0.035389,0.128673,1,1
2238,56,-0.700492,-0.101892,-0.023336,0.116249,1,1
2229,56,-0.728432,-0.097258,-0.033355,0.081608,1,1
2237,56,-0.603475,-0.025841,-0.008359,0.097004,0,1
2235,56,-0.714247,-0.144513,-0.000883,0.093627,0,1
2227,56,-0.618282,-0.042152,-0.011865,0.034230,0,1
2209,56,-0.724644,0.084811,0.000046,0.029899,1,1
2224,56,-0.671784,-0.045331,-0.143447,0.050048,1,1
2208,56,-0.683475,-0.026303,-0.000193,0.110051,1,1
2225,56,-0.743476,-0.125792,-0.057131,0.023501,1,1
2201,56,-0.751243,-0.053069,0.027718,0.106551,1,1
2210,56,-0.859195,0.035706,0.006934,0.085765,1,1
2223,56,-0.744884,-0.099123,0.037958,0.086361,1,1
2203,56,-0.799891,-0.051018,0.034938,0.011826,1,1
2212,56,-0.848624,-0.109278,0.047096,0.011884,1,1
2231,56,-0.762277,-0.074264,-0.021861,0.070734,1,1
2239,56,-0.788054,-0.009080,-0.025779,0.072701,1,1
2211,56,-0.826395,0.060737,-0.007693,0.114815,1,1
2226,56,-0.797372,-0.022897,-0.040801,0.159958,1,1
2233,56,-0.741781,0.018584,-0.062531,0.126559,1,1
2232,56,-0.792743,-0.054140,-0.060899,0.132951,1,1
2250,57,-0.824725,0.070509,0.103087,0.070963,1,1
2276,57,-0.681221,-0.118881,0.055573,0.114630,0,1
2249,57,-0.816725,0.017991,-0.002824,0.024278,1,1
2259,57,-0.732421,-0.004894,0.060306,0.048074,1,1
2252,57,-0.817409,-0.034687,-0.034077,0.038322,1,1
2268,57,-0.780387,-0.036358,-0.015967,0.121123,1,1
2279,57,-0.648319,-0.024329,0.042971,0.032089,1,1
2248,57,-0.760609,-0.089578,0.026899,0.207352,1,1
2258,57,-0.753347,-0.005515,0.040806,0.074343,1,1
2265,57,-0.709656,-0.129559,-0.038730,0.141218,1,1
2267,57,-0.624027,-0.022176,-0.068130,0.126516,0,1
2245,57,-0.745905,0.010723,0.147225,0.056679,1,1
2260,57,-0.759765,-0.029100,0.023583,0.111791,1,1
2273,57,-0.792120,0.022003,-0.000408,0.021561,1,1
2255,57,-0.717151,-0.035076,0.072743,0.009370,1,1
2262,57,-0.757858,-0.013830,-0.045818,0.143153,1,1
2243,57,-0.720877,0.048372,0.024501,0.050720,1,1
2271,57,-0.760429,-0.057136,-0.084130,0.084697,1,1
2263,57,-0.761250,0.000843,-0.014207,0.062116,1,1
2253,57,-0.834847,-0.007292,0.100561,0.013040,1,1
2278,57,-0.665365,-0.097088,-0.070100,0.141068,0,1
2261,57,-0.698782,-0.074283,-0.000439,-0.018250,1,1
2264,57,-0.759924,0.030459,-0.001750,0.112405,1,1
2257,57,-0.784595,-0.072758,0.016037,0.073161,1,1
2251,57,-0.809314,-0.100598,-0.012722,-0.021509,1,1
2241,57,-0.852313,-0.032605,-0.008535,-0.009296,1,1
2274,57,-0.726449,-0.057107,0.081099,0.075580,1,1
2240,57,-0.776980,0.011653,0.051842,0.075335,1,1
2270,57,-0.759706,-0.078582,-0.059492,0.052222,1,1
2247,57,-0.746796,-0.032678,0.029227,0.055552,1,1
2269,57,-0.734586,-0.121880,0.086340,0.048043,1,1
2244,57,-0.831872,-0.004173,0.016877,0.107870,1,1
2266,57,-0.711199,-0.018336,-0.044798,0.145144,1,1
2254,57,-0.784895,-0.046322,-0.037300,0.121270,1,1
2277,57,-0.786229,0.004037,0.058012,0.036726,1,1
2272,57,-0.711459,-0.064520,-0.066767,0.064662,1,1
2246,57,-0.851186,-0.049312,0.070602,0.036625,1,1
2242,57,-0.763736,0.081858,0.055855,0.088835,1,1
2256,57,-0.841178,-0.109947,0.024052,-0.024399,1,1
2275,57,-0.756112,0.009196,0.015644,0.046548,1,1
2282,58,-0.832685,0.073433,0.006936,0.045694,1,0
2316,58,-0.660168,0.017313,-0.046156,0.083661,1,1
2304,58,-0.703833,-0.028751,0.111221,0.115375,1,1
2289,58,-0.848714,-0.030772,0.005025,0.116112,1,1
2308,58,-0.740119,0.045471,-0.026843,0.059001,1,1
2298,58,-0.756902,0.066993,-0.005167,0.076296,1,1
2291,58,-0.730468,-0.046376,0.050424,0.149142,1,1
2286,58,-0.722759,-0.076700,0.032986,0.025020,1,1
2299,58,-0.817520,0.040204,0.032574,0.018608,1,1
2303,58,-0.791334,-0.085614,0.034676,0.034336,1,1
2318,58,-0.656974,-0.032503,-0.040077,0.102788,1,1
2284,58,-0.686743,0.014630,0.134160,0.102097,1,1
2293,58,-0.850307,-0.052590,0.030345,0.090966,1,1
2307,58,-0.719175,-0.014872,0.020190,0.052927,1,1
2295,58,-0.753798,-0.079375,0.085303,0.121081,1,1
2296,58,-0.733119,-0.079705,0.019034,0.128023,1,1
2294,58,-0.696055,0.015165,0.033550,0.103837,1,1
2311,58,-0.819446,-0.054904,-0.003944,0.029414,1,1
2314,58,-0.718000,-0.027698,-0.099705,0.140998,1,1
2281,58,-0.749710,-0.073832,0.134575,0.008677,1,1
2313,58,-0.708722,-0.037859,-0.014881,0.061536,1,1
2292,58,-0.741698,0.093831,0.049992,0.071275,1,1
2306,58,-0.693446,-0.030523,-0.009136,0.088307,1,1
2312,58,-0.715978,-0.025833,0.015076,0.178960,1,1
2310,58,-0.752233,-0.029262,-0.138050,0.022725,1,1
2302,58,-0.786475,-0.006676,-0.122841,0.110106,1,1
2288,58,-0.810304,0.006674,0.052879,0.028302,1,1
2305,58,-0.700843,-0.024646,-0.011873,0.043902,1,1
2309,58,-0.732794,-0.046726,0.049572,0.093404,1,1
2315,58,-0.700718,-0.080138,-0.028884,0.091748,1,1
2319,58,-0.734519,-0.056350,-0.082855,0.116698,1,1
2297,58,-0.845593,-0.032650,0.023878,0.089793,1,1
2280,58,-0.786363,0.062143,-0.006380,0.090632,1,1
2301,58,-0.781479,-0.068907,0.010741,0.131217,1,1
2285,58,-0.787325,-0.083665,0.034681,0.114548,1,1
2317,58,-0.722241,-0.074102,-0.072611,0.061485,1,1
2283,58,-0.715765,-0.047011,-0.096791,-0.008279,1,1
2300,58,-0.720513,-0.025968,-0.104697,0.100858,1,1
2290,58,-0.848427,0.042490,0.095303,0.154621,1,1
2287,58,-0.732458,-0.026830,0.052198,0.128939,1,1
2350,59,-0.822219,-0.140179,-0.066836,0.117149,1,1
2341,59,-0.647533,-0.025766,-0.026369,0.005131,1,1
2342,59,-0.766269,0.051239,-0.068274,0.084387,1,1
2326,59,-0.823287,0.019982,0.066464,0.098497,1,1
2347,59,-0.735163,0.015408,0.005880,0.092362,1,1
2332,59,-0.759030,0.063101,-0.061553,0.131321,1,1
2345,59,-0.681246,-0.076825,-0.075212,0.012820,1,1
2346,59,-0.780014,-0.139839,0.023830,0.141238,1,1
2323,59,-0.846025,0.114146,-0.038284,0.054272,1,0
2336,59,-0.834277,0.032912,0.035193,0.059452,1,1
2359,59,-0.721087,-0.144287,-0.043533,0.027453,0,1
2356,59,-0.783688,-0.036796,0.078172,0.067732,1,1
2357,59,-0.667871,0.036432,0.062154,0.143680,1,1
2351,59,-0.716317,-0.069835,-0.007319,0.100709,1,1
2327,59,-0.787214,0.017789,0.015762,0.047593,1,1
2339,59,-0.777762,0.074480,0.055206,-0.006202,1,1
2349,59,-0.703610,-0.083115,-0.003967,0.064658,1,1
2333,59,-0.753492,-0.111405,0.003763,0.079613,1,1
2330,59,-0.818282,-0.078034,0.018213,0.058267,1,1
2340,59,-0.706770,0.041531,-0.062986,0.100855,1,1
2338,59,-0.848226,-0.001658,0.014211,0.085949,1,1
2335,59,-0.838838,0.008670,0.020825,0.065182,1,1
2331,59,-0.781545,0.059123,0.053151,0.154262,1,1
2320,59,-0.686885,-0.007439,0.054827,0.150570,1,1
2354,59,-0.630247,-0.003137,-0.006374,0.220739,0,1
2343,59,-0.700156,-0.036116,-0.000733,0.038154,1,1
2358,59,-0.791358,0.019362,-0.104579,0.087676,1,1
2329,59,-0.811937,-0.014536,0.058690,0.103525,1,1
2321,59,-0.786231,0.095667,0.066241,0.049661,1,0
2344,59,-0.665922,-0.097265,0.019497,0.030065,1,1
2337,59,-0.790324,0.066303,0.048448,0.044732,1,1
2325,59,-0.839633,0.042881,0.046457,0.021883,1,1
2328,59,-0.688433,0.002172,0.097628,0.032748,1,1
2352,59,-0.737463,-0.053229,0.004167,0.040114,1,1
2322,59,-0.722423,0.018879,-0.003372,0.015661,1,1
2355,59,-0.693804,-0.056675,0.039155,0.101078,1,1
2334,59,-0.702043,0.007635,-0.035726,0.156977,1,1
2348,59,-0.809539,0.013067,-0.048714,0.037074,1,1
2353,59,-0.761901,-0.026237,0.005648,0.052503,1,1
2324,59,-0.835951,0.040127,0.058220,0.062528,1,1
2392,60,-0.787793,0.008511,-0.100789,0.182105,1,1
2377,60,-0.776626,-0.084379,0.065762,0.140097,1,1
2370,60,-0.792625,0.029793,0.024343,-0.018388,1,1
2384,60,-0.657202,-0.050819,-0.021344,0.034049,1,1
2381,60,-0.707637,-0.049426,-0.000223,0.079610,1,1
2389,60,-0.830246,-0.066513,-0.005793,0.042762,1,1
2385,60,-0.695111,-0.013164,0.003477,0.126113,1,1
2386,60,-0.592686,-0.053519,-0.071077,0.090133,0,1
2372,60,-0.813813,0.002314,-0.149859,-0.004408,1,1
2383,60,-0.769838,-0.007723,0.025089,0.074468,1,1
2390,60,-0.698420,-0.043354,-0.064189,0.086788,1,1
2374,60,-0.728925,-0.014551,0.059383,0.086560,1,1
2388,60,-0.813992,-0.062178,-0.062135,0.057602,1,1
2396,60,-0.729927,-0.069452,0.007891,0.061558,1,1
2380,60,-0.778214,-0.052238,-0.070729,0.101232,1,1
2367,60,-0.869149,-0.049102,0.001256,0.069814,1,1
2361,60,-0.754789,0.006610,0.006033,0.090075,1,1
2376,60,-0.799318,-0.082836,0.043759,0.114373,1,1
2378,60,-0.804845,0.034142,0.046728,0.102588,1,1
2360,60,-0.747168,0.042930,-0.094657,0.133379,1,1
2382,60,-0.837697,-0.072089,-0.075975,0.067414,1,1
2362,60,-0.657534,0.066775,0.044033,0.076144,1,1
2364,60,-0.764032,0.025128,-0.014848,0.052941,1,1
2373,60,-0.846344,-0.000428,0.014669,0.056204,1,1
2366,60,-0.862181,0.113414,0.032134,0.070154,1,0
2371,60,-0.852570,0.006045,-0.022265,0.042029,1,1
2391,60,-0.730408,-0.083480,-0.060208,0.085574,1,1
2387,60,-0.631928,-0.100640,-0.034227,0.089275,0,1
2393,60,-0.683149,0.013316,-0.100888,0.058868,1,1
2375,60,-0.741181,-0.067904,-0.018691,0.091082,1,1
2399,60,-0.596390,-0.070797,-0.015094,0.092610,0,1
2395,60,-0.699169,-0.075660,0.035147,0.066120,1,1
2363,60,-0.690709,-0.070393,-0.035933,0.100685,1,1
2369,60,-0.793726,0.017739,0.052223,0.149418,1,1
2394,60,-0.669612,-0.031391,0.015196,0.109491,1,1
2368,60,-0.799301,-0.068984,0.024108,-0.019161,1,1
2397,60,-0.767837,-0.134584,-0.038739,0.094203,1,1
2365,60,-0.741110,0.098153,0.055820,0.129548,1,1
2379,60,-0.727217,-0.057172,0.046363,0.049453,1,1
2398,60,-0.777953,-0.044978,-0.015481,0.118225,1,1
2414,61,-0.919313,-0.044935,0.071182,0.145342,1,0
2402,61,-0.832935,-0.126447,0.073027,0.112713,1,1
2408,61,-0.846559,0.018153,0.110802,0.082043,1,1
2437,61,-0.785389,-0.051331,-0.083253,0.085862,1,1
2401,61,-0.749225,0.044165,0.118651,0.148529,1,1
2405,61,-0.827394,-0.002354,0.086735,0.175158,1,1
2416,61,-0.841762,-0.092904,0.063448,0.179999,1,1
2426,61,-0.750049,-0.130204,-0.040394,0.107193,1,1
2433,61,-0.593405,-0.074659,-0.124060,0.008975,0,1
2429,61,-0.740006,-0.092187,-0.015647,0.145793,1,1
2406,61,-0.744049,0.033356,0.155784,0.009246,1,1
2428,61,-0.752870,-0.056735,0.051518,0.073914,1,1
2410,61,-0.715779,0.040336,-0.006491,0.093379,1,1
2415,61,-0.683432,0.002425,0.062074,0.164674,1,1
2427,61,-0.756924,-0.084192,-0.009668,0.114887,1,1
2407,61,-0.771555,-0.031337,0.027060,0.109544,1,1
2425,61,-0.764426,0.005101,0.048266,0.120458,1,1
2419,61,-0.746829,-0.023668,0.114701,0.156408,1,1
2420,61,-0.680646,0.022419,-0.036201,-0.032785,1,1
2421,61,-0.775180,-0.033375,-0.002557,0.030938,1,1
2435,61,-0.785518,0.006320,-0.029249,0.094289,1,1
2417,61,-0.758263,0.080872,0.094929,0.088603,1,1
2400,61,-0.777665,-0.115138,0.150505,0.197477,1,1
2438,61,-0.726558,0.012447,-0.085327,-0.001532,1,1
2422,61,-0.742154,-0.035445,0.017727,0.029131,1,1
2430,61,-0.672459,-0.075638,-0.025067,0.097182,1,1
2431,61,-0.614136,-0.057684,-0.021421,0.131295,0,1
2439,61,-0.786702,-0.026422,-0.003257,0.152053,1,1
2403,61,-0.721292,-0.010551,0.121689,0.113169,1,1
2409,61,-0.786300,0.007515,0.087255,0.041818,1,1
2413,61,-0.771224,0.010936,0.104502,0.046278,1,1
2424,61,-0.724086,-0.007480,0.019738,0.078455,1,1
2434,61,-0.727109,-0.097048,0.079745,0.038920,1,1
2412,61,-0.743208,0.014288,0.066378,0.125662,1,1
2411,61,-0.706166,0.019109,0.079274,0.116778,1,1
2423,61,-0.793805,-0.107987,-0.029272,0.115628,1,1
2436,61,-0.808474,-0.019314,0.032647,0.128797,1,1
2404,61,-0.786408,-0.005705,0.124250,0.013900,1,1
2418,61,-0.763618,0.029738,0.101531,0.068014,1,1
2432,61,-0.783136,-0.081767,0.014027,-0.006819,1,1
2463,62,-0.709250,-0.113178,0.062415,0.032528,1,1
2456,62,-0.827360,-0.011278,0.133515,0.016327,1,1
2442,62,-0.730655,-0.030813,0.095573,0.149762,1,1
2440,62,-0.824219,-0.041200,0.084119,0.102110,1,1
2459,62,-0.844359,0.081486,0.102331,0.022742,1,0
2472,62,-0.765549,-0.101713,-0.028914,0.099857,1,1
2450,62,-0.783379,0.040541,0.132903,0.031482,1,1
2464,62,-0.760515,-0.130674,-0.051677,0.064947,1,1
2448,62,-0.783147,0.049516,0.119377,0.198990,1,1
2455,62,-0.858119,0.018985,0.061589,0.111225,1,1
2451,62,-0.821499,0.008486,0.148657,0.176162,1,1
2476,62,-0.755905,-0.040424,-0.025184,0.000858,1,1
2443,62,-0.726640,-0.010241,0.205814,0.082890,1,1
2474,62,-0.804785,-0.036693,-0.038154,0.052914,1,1
2447,62,-0.866491,-0.109202,0.191096,0.105519,1,0
2441,62,-0.747365,-0.056564,0.087833,0.105568,1,1
2444,62,-0.736892,-0.011173,0.122562,0.136901,1,1
2453,62,-0.826141,0.004819,0.109201,0.175911,1,1
2458,62,-0.838718,0.012188,0.152481,-0.005631,1,1
2479,62,-0.727664,0.017170,-0.085782,0.063356,1,1
2452,62,-0.800294,-0.023676,0.087226,0.198079,1,1
2467,62,-0.752082,0.022964,0.008624,0.079254,1,1
2462,62,-0.709447,-0.089607,-0.102498,0.048236,1,1
2473,62,-0.636060,-0.045817,-0.099018,0.065480,1,1
2470,62,-0.771952,0.014466,0.017175,-0.002337,1,1
2449,62,-0.817498,-0.149040,0.190674,-0.044426,1,1
2461,62,-0.766372,-0.046614,-0.058930,0.059192,1,1
2466,62,-0.693432,0.023902,-0.052469,0.093669,1,1
2445,62,-0.741526,-0.038081,0.109709,0.042785,1,1
2460,62,-0.775896,-0.067263,0.002779,0.100028,1,1
2471,62,-0.789213,-0.102036,-0.036557,0.071555,1,1
2468,62,-0.674704,-0.025073,-0.031624,0.093748,1,1
2469,62,-0.801252,-0.038281,-0.055501,0.126084,1,1
2478,62,-0.725825,-0.112311,-0.017237,0.040920,1,1
2477,62,-0.730234,-0.017137,-0.080809,0.117753,1,1
2465,62,-0.702991,-0.144856,0.009568,0.113299,0,1
2454,62,-0.717006,0.110077,0.076984,0.206749,1,0
2457,62,-0.845715,-0.020538,0.065375,0.114377,1,1
2475,62,-0.708719,-0.054001,-0.023370,-0.009007,1,1
2446,62,-0.794226,-0.022028,0.113008,0.003589,1,1
2507,63,-0.779496,-0.013975,0.014255,0.078386,1,1
2499,63,-0.744541,-0.001347,0.036818,0.050642,1,1
2480,63,-0.727804,-0.016036,0.091248,0.038995,1,1
2483,63,-0.710830,-0.031820,0.095891,0.066566,1,1
2505,63,-0.762663,-0.081024,-0.097069,0.031263,1,1
2493,63,-0.699430,-0.011299,0.113692,0.094404,1,1
2485,63,-0.691227,0.012067,0.103078,0.079476,1,1
2498,63,-0.844022,0.021802,0.098280,0.037330,1,1
2491,63,-0.822665,-0.059420,0.086442,-0.032605,1,1
2496,63,-0.783519,0.047300,0.156940,0.075849,1,1
2515,63,-0.707239,-0.155492,0.102345,0.102383,0,1
2495,63,-0.844587,0.023596,0.116249,0.068701,1,1
2484,63,-0.855620,0.060118,0.146575,0.132114,1,0
2504,63,-0.771619,0.044241,-0.068018,0.020197,1,1
2486,63,-0.737035,-0.068385,0.237350,0.065782,1,1
2490,63,-0.745816,0.036393,0.113918,0.027406,1,1
2501,63,-0.767636,-0.046164,-0.017185,0.084033,1,1
2513,63,-0.736504,-0.025747,-0.087993,0.122664,1,1
2488,63,-0.767769,-0.002906,0.094052,-0.031573,1,1
2506,63,-0.687790,-0.066532,-0.016035,0.093021,1,1
2517,63,-0.662667,0.058060,-0.029045,0.077324,1,1
2502,63,-0.702142,-0.028652,-0.044737,0.136798,1,1
2487,63,-0.863693,0.062211,0.093175,0.040556,1,0
2481,63,-0.816630,-0.022732,0.051627,0.031293,1,1
2492,63,-0.767463,0.010032,0.068491,0.047713,1,1
2514,63,-0.737753,-0.001952,-0.045335,0.082496,1,1
2494,63,-0.736725,-0.040876,0.013270,0.117695,1,1
2512,63,-0.709046,-0.119545,-0.016860,0.089352,1,1
2497,63,-0.753246,0.012307,0.109423,0.144450,1,1
2511,63,-0.720625,-0.113008,0.062839,0.039782,1,1
2508,63,-0.716494,-0.119973,-0.021835,0.056714,1,1
2500,63,-0.802737,-0.089804,-0.030422,0.070968,1,1
2509,63,-0.735022,-0.103196,-0.063925,-0.018494,1,1
2489,63,-0.793113,0.061484,0.089225,0.084896,1,1
2503,63,-0.667525,-0.101936,-0.029535,0.031059,1,1
2510,63,-0.727538,0.014438,-0.014090,0.147128,1,1
2516,63,-0.684005,-0.107574,-0.016049,0.052252,1,1
2482,63,-0.837986,0.009048,0.087819,0.129861,1,1
2519,63,-0.641501,-0.102509,-0.101167,0.037874,0,1
2518,63,-0.796622,-0.037982,0.012515,0.034211,1,1
2557,64,-0.733080,0.014014,-0.056382,0.110185,1,1
2537,64,-0.740900,-0.016187,0.115512,0.126431,1,1
2536,64,-0.755300,0.051568,0.026144,0.032827,1,1
2539,64,-0.771951,-0.022122,0.097531,0.099021,1,1
2544,64,-0.738857,0.009262,-0.111296,0.158827,1,1
2559,64,-0.739977,-0.000874,-0.004508,0.211710,1,1
2543,64,-0.754064,0.021887,-0.030214,0.028088,1,1
2530,64,-0.715266,-0.031692,0.083032,0.059096,1,1
2526,64,-0.675559,0.033464,0.103750,0.041980,1,1
2523,64,-0.778477,0.003447,0.214165,0.036730,1,1
2531,64,-0.740437,-0.059800,0.063910,0.241050,1,1
2548,64,-0.812778,-0.074889,-0.022304,0.083309,1,1
2522,64,-0.673918,-0.034274,0.113655,0.082734,1,1
2525,64,-0.806805,-0.068724,0.066891,0.033886,1,1
2527,64,-0.857753,0.039984,0.165745,0.149639,1,0
2532,64,-0.763214,-0.036250,-0.032378,0.065100,1,1
2542,64,-0.739038,-0.082664,-0.102639,-0.023436,1,1
2555,64,-0.700060,-0.048268,-0.034593,0.071198,1,1
2550,64,-0.649734,-0.019947,0.088066,0.057059,1,1
2521,64,-0.680921,0.016962,0.158117,0.077856,1,1
2520,64,-0.763786,-0.029249,0.077556,0.052420,1,1
2546,64,-0.788346,-0.079335,-0.068188,0.088914,1,1
2538,64,-0.674946,-0.059181,0.078465,0.123374,1,1
2540,64,-0.768766,-0.082524,-0.006438,0.034292,1,1
2545,64,-0.634471,-0.072663,0.028789,0.115913,0,1
2547,64,-0.701552,-0.044112,0.057135,0.124289,1,1
2541,64,-0.738586,-0.092662,-0.038181,0.035892,1,1
2553,64,-0.700595,-0.035116,-0.009259,0.076300,1,1
2529,64,-0.672488,0.067614,0.154242,0.190832,1,1
2524,64,-0.646097,0.036797,0.178339,0.103921,1,1
2556,64,-0.793351,0.007405,-0.019632,0.106654,1,1
2551,64,-0.618032,-0.089006,0.015326,0.079581,0,1
2528,64,-0.714674,0.000035,0.085611,0.017163,1,1
2535,64,-0.792139,0.022649,0.145805,0.116730,1,1
2558,64,-0.782761,-0.056347,0.037361,0.018057,1,1
2534,64,-0.788454,0.085129,0.087011,0.115888,1,1
2552,64,-0.669784,-0.067090,0.056604,0.078107,1,1
2554,64,-0.680248,-0.118424,-0.021783,0.128312,0,1
2533,64,-0.765538,-0.005243,0.053445,0.150468,1,1
2549,64,-0.760558,0.070248,-0.057010,0.146341,1,1
2567,65,-0.728773,-0.052812,0.067708,0.121115,1,1
2571,65,-0.843225,-0.000198,0.140435,0.045963,1,1
2564,65,-0.760986,-0.036451,0.083572,0.028801,1,1
2596,65,-0.647381,-0.011990,0.023160,0.041575,1,1
2578,65,-0.857627,-0.025084,0.050963,0.144242,1,1
2566,65,-0.763447,0.003665,0.103882,0.108463,1,1
2599,65,-0.826848,-0.010562,-0.063884,0.117898,1,1
2563,65,-0.808694,-0.093109,0.058975,0.135748,1,1
2562,65,-0.640790,-0.047890,0.053301,0.101726,1,1
2583,65,-0.766389,-0.110993,0.033911,0.066459,1,1
2561,65,-0.756535,0.053670,0.028446,0.132238,1,1
2594,65,-0.774581,-0.042057,0.032175,0.155537,1,1
2560,65,-0.841629,-0.079414,0.072402,0.132778,1,1
2580,65,-0.764521,-0.095781,-0.019863,0.078376,1,1
2576,65,-0.823865,-0.023730,0.095335,0.118010,1,1
2584,65,-0.657778,-0.059387,-0.115470,-0.014513,1,1
2597,65,-0.777012,-0.088923,0.051182,0.077681,1,1
2590,65,-0.807174,-0.035988,-0.034891,0.044261,1,1
2592,65,-0.734787,-0.024654,-0.069445,0.046699,1,1
2569,65,-0.760465,0.041757,0.097555,0.146866,1,1
2574,65,-0.780674,-0.013074,0.106471,0.035061,1,1
2565,65,-0.754798,-0.016497,0.149594,0.034197,1,1
2575,65,-0.723786,-0.049779,0.146467,0.080992,1,1
2585,65,-0.670576,-0.120331,-0.029171,0.115436,0,1
2586,65,-0.821707,-0.050896,-0.047155,0.116896,1,1
2568,65,-0.748939,0.016593,0.096782,0.089492,1,1
2579,65,-0.696822,0.060558,0.137269,0.113207,1,1
2582,65,-0.732258,-0.087894,-0.084141,0.104055,1,1
2587,65,-0.743348,-0.025763,-0.016589,0.092152,1,1
2581,65,-0.683658,0.028356,-0.011072,0.134083,1,1
2595,65,-0.742368,-0.088061,-0.085261,0.179172,1,1
2577,65,-0.781337,-0.088365,0.108611,0.128189,1,1
2598,65,-0.763711,-0.010839,-0.004385,0.050237,1,1
2573,65,-0.763272,-0.014095,0.117291,0.079086,1,1
2589,65,-0.750640,-0.018967,0.007370,0.033237,1,1
2572,65,-0.898736,-0.077176,0.086412,0.086968,1,0
2591,65,-0.746580,0.011979,-0.058337,0.032432,1,1
2588,65,-0.766583,-0.112414,-0.040793,0.027201,1,1
2593,65,-0.745227,-0.002308,-0.008691,0.068129,1,1
2570,65,-0.813010,-0.040643,0.081654,0.097330,1,1
2628,66,-0.664180,-0.093258,-0.103738,-0.011960,1,1
2609,66,-0.803073,-0.039237,-0.016350,0.037457,1,1
2638,66,-0.662664,-0.109190,0.033563,0.149353,0,1
2614,66,-0.782798,-0.049711,0.119556,0.020864,1,1
2612,66,-0.778355,-0.096761,0.059241,0.054892,1,1
2613,66,-0.726629,0.031148,0.204326,0.039273,1,1
2627,66,-0.720310,-0.068343,0.035230,0.060456,1,1
2633,66,-0.747881,-0.045609,-0.053042,0.169231,1,1
2623,66,-0.706187,-0.035196,-0.018237,-0.002915,1,1
2602,66,-0.789041,0.009401,0.087812,0.039687,1,1
2616,66,-0.779714,0.059472,0.123821,0.118708,1,1
2621,66,-0.606139,0.037057,0.050927,0.101986,0,1
2608,66,-0.757963,-0.010663,0.151054,0.111511,1,1
2604,66,-0.754017,0.005755,0.121109,0.136940,1,1
2639,66,-0.657013,-0.102690,-0.103670,0.055438,0,1
2619,66,-0.691931,-0.003007,0.050250,0.096036,1,1
2617,66,-0.715731,-0.037305,0.051142,0.148019,1,1
2637,66,-0.718168,-0.058304,0.041419,0.066604,1,1
2629,66,-0.686723,0.005581,-0.112949,0.124751,1,1
2630,66,-0.667812,-0.082343,-0.026587,0.035709,1,1
2632,66,-0.693340,-0.200543,-0.005626,0.053095,0,1
2620,66,-0.665738,-0.054444,0.007080,0.157482,1,1
2631,66,-0.661282,-0.014429,0.036755,0.054092,1,1
2611,66,-0.782399,-0.049252,0.142474,0.059666,1,1
2600,66,-0.746289,0.078614,0.020224,0.083076,1,1
2626,66,-0.710424,0.000689,-0.089692,0.119146,1,1
2603,66,-0.796473,0.007565,0.058761,0.092474,1,1
2615,66,-0.805786,0.026670,0.033674,0.108716,1,1
2610,66,-0.770404,0.030130,0.091989,0.122326,1,1
2607,66,-0.781052,0.015664,0.139768,0.159510,1,1
2618,66,-0.777764,0.007467,0.042762,0.101835,1,1
2636,66,-0.724972,-0.022123,-0.051920,0.023702,1,1
2635,66,-0.710038,-0.119458,-0.021402,0.060001,1,1
2605,66,-0.850402,0.047155,0.033761,0.028834,1,0
2624,66,-0.669122,0.000238,-0.025375,0.040204,1,1
2606,66,-0.800834,-0.022360,0.100476,0.098953,1,1
2625,66,-0.825812,-0.069108,-0.037159,0.099719,1,1
2601,66,-0.769917,-0.060919,0.070939,0.046215,1,1
2634,66,-0.778708,-0.088285,0.091972,0.078998,1,1
2622,66,-0.806366,-0.035198,-0.085481,0.130566,1,1
2663,67,-0.711387,-0.018907,-0.005337,0.025040,1,1
2674,67,-0.704736,-0.045860,-0.081839,-0.003989,1,1
2650,67,-0.845386,-0.091750,0.051246,0.084072,1,1
2664,67,-0.689299,-0.047900,0.012969,0.052031,1,1
2640,67,-0.793116,-0.015630,0.118932,0.105518,1,1
2677,67,-0.800484,-0.065659,0.024494,0.041248,1,1
2645,67,-0.775900,-0.028538,0.216997,0.086173,1,1
2672,67,-0.766512,-0.016131,-0.034112,0.078567,1,1
2673,67,-0.682824,0.026465,0.051925,0.091615,1,1
2662,67,-0.750103,-0.068073,-0.008687,0.030752,1,1
2658,67,-0.785675,0.083810,-0.001771,0.159739,1,1
2651,67,-0.811528,0.035176,0.124105,0.097555,1,1
2642,67,-0.783966,-0.097424,0.147522,0.076664,1,1
2647,67,-0.762012,-0.104986,0.121980,-0.023244,1,1
2653,67,-0.825956,-0.044238,0.112013,0.070621,1,1
2678,67,-0.718081,-0.090920,-0.045062,0.096072,1,1
2655,67,-0.791558,0.004195,0.092340,0.031016,1,1
2646,67,-0.777420,0.016587,0.060778,0.051914,1,1
2657,67,-0.787490,0.065037,0.071089,0.080841,1,1
2654,67,-0.788263,0.009087,0.150306,0.165294,1,1
2641,67,-0.815914,-0.042611,0.110558,0.089316,1,1
2668,67,-0.699616,-0.058337,-0.017412,0.050773,1,1
2643,67,-0.779236,0.052618,0.112228,0.087931,1,1
2652,67,-0.866491,-0.020212,0.100979,0.055871,1,1
2666,67,-0.646176,0.019011,-0.045446,0.129968,1,1
2665,67,-0.738994,-0.087777,0.039448,0.114659,1,1
2675,67,-0.727980,-0.051029,-0.071578,0.123026,1,1
2660,67,-0.727136,-0.103611,-0.041626,0.106452,1,1
2656,67,-0.794594,-0.012787,0.100657,0.121456,1,1
2648,67,-0.777321,0.017867,0.130473,0.060239,1,1
2649,67,-0.851517,-0.076839,0.071929,0.118193,1,1
2676,67,-0.726285,-0.051400,-0.038958,0.065622,1,1
2659,67,-0.772087,0.016161,0.158470,0.205613,1,1
2679,67,-0.718361,-0.086495,-0.017910,0.069332,1,1
2661,67,-0.670566,-0.046013,-0.019072,-0.025784,1,1
2670,67,-0.710775,-0.053439,-0.080667,0.064376,1,1
2669,67,-0.766264,0.033009,0.017686,0.079905,1,1
2671,67,-0.687752,-0.040396,-0.106610,0.135046,1,1
2644,67,-0.841488,-0.013648,0.151154,0.085843,1,1
2667,67,-0.683113,0.000967,-0.113931,0.107729,1,1
2703,68,-0.741142,-0.114188,0.013046,0.120425,1,1
2692,68,-0.753171,0.040132,0.022280,0.101667,1,1
2708,68,-0.654270,-0.048774,-0.109577,0.145436,1,1
2706,68,-0.798027,-0.092376,-0.068206,0.109115,1,1
2680,68,-0.776085,-0.041622,0.078688,0.147894,1,1
2705,68,-0.714894,-0.149939,-0.022514,0.119252,0,1
2719,68,-0.738973,-0.008758,-0.136193,0.065107,1,1
2690,68,-0.890906,0.147414,0.089773,0.086038,1,0
2712,68,-0.678962,-0.010696,0.009930,0.118910,1,1
2717,68,-0.830395,-0.039579,-0.032178,0.053550,1,1
2683,68,-0.789377,0.056124,0.051604,0.046837,1,1
2715,68,-0.775432,0.021487,-0.037962,-0.006878,1,1
2691,68,-0.759286,-0.054939,0.081481,0.070814,1,1
2716,68,-0.772914,0.012789,0.026802,0.160358,1,1
2701,68,-0.662022,-0.018102,-0.086464,0.091650,1,1
2697,68,-0.773701,0.076233,0.074703,0.081949,1,1
2693,68,-0.797206,-0.050231,0.120193,0.048088,1,1
2713,68,-0.709536,-0.038884,0.042249,0.013084,1,1
2702,68,-0.744843,-0.108915,0.045008,0.083763,1,1
2709,68,-0.792435,0.099304,0.028383,0.003189,1,1
2685,68,-0.772436,0.004116,-0.000091,0.049450,1,1
2688,68,-0.778123,-0.047732,0.053464,0.089311,1,1
2710,68,-0.759350,-0.064183,-0.061807,0.149238,1,1
2718,68,-0.725596,-0.062024,0.036480,0.047787,1,1
2689,68,-0.711930,0.032989,0.067918,0.121247,1,1
2711,68,-0.725334,0.038241,-0.005492,0.101901,1,1
2704,68,-0.736546,-0.041889,-0.034281,0.033957,1,1
2694,68,-0.730304,-0.026526,0.060226,0.132013,1,1
2698,68,-0.617423,0.011792,0.074275,0.120868,1,1
2699,68,-0.836123,-0.010340,0.027732,0.119781,1,1
2707,68,-0.801809,-0.049442,0.036460,0.124326,1,1
2700,68,-0.702326,0.035666,0.010363,0.061417,1,1
2681,68,-0.851244,-0.028283,0.088669,0.099366,1,1
2682,68,-0.830649,0.027209,0.147958,0.125568,1,1
2687,68,-0.756509,0.063693,0.038883,-0.015241,1,1
2684,68,-0.799684,-0.033797,0.136883,0.095850,1,1
2714,68,-0.762069,-0.073814,-0.028715,0.027692,1,1
2686,68,-0.796101,-0.010244,0.122594,-0.012132,1,1
2696,68,-0.854625,0.010062,0.094371,0.043820,1,1
2695,68,-0.714575,-0.078244,0.142780,0.071378,1,1
2745,69,-0.684671,-0.012574,-0.090068,0.113652,1,1
2736,69,-0.795073,0.055738,0.079800,0.071370,1,1
2722,69,-0.719499,0.012582,0.067345,0.137211,1,1
2757,69,-0.713886,-0.032138,-0.068297,0.114660,1,1
2750,69,-0.706636,-0.093979,0.086856,0.083511,1,1
2727,69,-0.748081,-0.057248,0.113611,0.159727,1,1
2758,69,-0.695347,0.042607,-0.023404,0.031623,1,1
2733,69,-0.806637,-0.027451,0.142569,0.113728,1,1
2749,69,-0.688799,0.015527,0.082339,0.060127,1,1
2744,69,-0.684437,0.022820,-0.043363,0.104947,1,1
2734,69,-0.731343,-0.101568,0.094331,0.115276,1,1
2753,69,-0.743090,-0.137495,-0.050820,0.027203,1,1
2721,69,-0.709843,0.072239,0.047180,0.082390,1,1
2723,69,-0.861494,0.035800,0.053939,0.098055,1,0
2738,69,-0.684191,-0.012542,0.183573,0.155364,1,1
2730,69,-0.744089,-0.032814,0.122477,0.046014,1,1
2735,69,-0.696775,0.007830,0.121381,0.069536,1,1
2737,69,-0.742619,-0.003952,0.102304,0.032654,1,1
2752,69,-0.667654,-0.062376,0.079503,0.109425,1,1
2751,69,-0.679957,-0.096983,0.051226,0.000575,1,1
2741,69,-0.691378,0.049464,-0.134419,0.084885,1,1
2754,69,-0.733108,-0.068545,0.007248,0.078680,1,1
2756,69,-0.641725,-0.093839,-0.029524,0.131917,0,1
2726,69,-0.751188,0.002288,0.051375,0.107749,1,1
2720,69,-0.842717,-0.004606,0.064432,0.025685,1,1
2740,69,-0.675226,-0.123391,-0.058080,0.106704,0,1
2755,69,-0.661537,0.040367,-0.010323,0.089607,1,1
2747,69,-0.727458,-0.013444,0.016259,-0.018205,1,1
2724,69,-0.770186,-0.015761,0.204225,-0.037135,1,1
2725,69,-0.714194,-0.007671,0.082398,0.011982,1,1
2743,69,-0.711696,0.013505,-0.015236,-0.067126,1,1
2759,69,-0.673746,-0.058788,0.017481,0.138048,1,1
2748,69,-0.768237,0.017362,-0.035918,0.093408,1,1
2728,69,-0.786841,0.057981,0.138182,0.095994,1,1
2742,69,-0.689006,0.041652,-0.003884,0.150085,1,1
2729,69,-0.700090,0.096028,-0.004505,0.122321,1,1
2731,69,-0.820654,-0.026912,0.204891,0.206753,1,1
2739,69,-0.770431,0.079939,0.033179,0.116669,1,1
2746,69,-0.681829,-0.057581,0.057532,0.039668,1,1
2732,69,-0.823432,-0.035948,0.150046,0.116078,1,1
2768,70,-0.837154,0.006741,0.098954,0.090185,1,1
2773,70,-0.770005,-0.074406,0.183859,0.060479,1,1
2787,70,-0.761883,-0.032637,-0.081064,0.113987,1,1
2767,70,-0.782384,-0.059248,0.002722,0.086578,1,1
2762,70,-0.822462,0.096681,0.111127,0.087359,1,0
2791,70,-0.678289,-0.038047,-0.049168,0.158632,1,1
2770,70,-0.737730,-0.024676,0.148191,0.011460,1,1
2784,70,-0.764418,0.038452,-0.080409,0.171496,1,1
2795,70,-0.809898,-0.035284,-0.025741,0.004532,1,1
2796,70,-0.680450,-0.053974,-0.009270,0.055166,1,1
2783,70,-0.599567,-0.074724,-0.000255,0.036887,0,1
2782,70,-0.706251,0.000686,-0.060565,0.084156,1,1
2765,70,-0.720883,0.005339,0.077474,0.034446,1,1
2774,70,-0.754697,-0.019702,0.104148,0.069004,1,1
2766,70,-0.857032,0.042991,0.049837,0.121205,1,0
2799,70,-0.667860,-0.114743,-0.038369,-0.013094,0,1
2761,70,-0.809406,0.083437,0.172884,0.050486,1,0
2769,70,-0.819762,0.086602,0.120709,0.103057,1,0
2786,70,-0.674785,-0.027920,-0.011177,0.077981,1,1
2794,70,-0.842518,-0.073148,-0.093228,0.087144,1,1
2781,70,-0.711836,-0.040404,-0.021505,0.141614,1,1
2763,70,-0.727713,-0.029594,0.115162,0.120896,1,1
2777,70,-0.828064,0.015403,0.181311,0.048639,1,1
2780,70,-0.715259,0.040467,-0.017400,0.061216,1,1
2772,70,-0.841437,0.020978,0.110149,0.099564,1,1
2792,70,-0.776913,0.020970,-0.069688,0.095536,1,1
2760,70,-0.820440,-0.051949,0.092373,0.173756,1,1
2771,70,-0.881591,0.015573,0.133177,0.092389,1,0
2789,70,-0.669823,-0.041788,-0.005384,0.135578,1,1
2785,70,-0.737196,-0.063923,-0.032910,-0.003757,1,1
2790,70,-0.746764,-0.019867,-0.060296,0.023075,1,1
2764,70,-0.805402,0.042967,0.124168,0.087193,1,1
2797,70,-0.737630,-0.003419,-0.007620,0.049480,1,1
2793,70,-0.831540,0.003969,-0.040224,0.159150,1,1
2776,70,-0.748779,-0.041556,0.112174,0.143125,1,1
2788,70,-0.732480,-0.100068,-0.006099,0.086946,1,1
2775,70,-0.759453,0.004927,0.144388,0.254157,1,1
2798,70,-0.712955,-0.060092,0.048504,0.043376,1,1
2779,70,-0.699019,-0.101754,0.131946,0.034745,1,1
2778,70,-0.794209,-0.014714,0.154188,0.064015,1,1
2839,71,-0.773897,0.026165,0.047284,-0.011037,1,1
2816,71,-0.790447,-0.008962,0.091142,0.096257,1,1
2804,71,-0.772317,-0.016222,0.101351,-0.006183,1,1
2813,71,-0.828491,0.089583,0.114377,0.045597,1,0
2814,71,-0.743244,-0.100290,0.078321,0.129996,1,1
2815,71,-0.833647,0.046728,0.103658,0.093892,1,1
2822,71,-0.811701,0.013332,0.042055,-0.037945,1,1
2824,71,-0.680334,-0.023112,0.006087,-0.079630,1,1
2837,71,-0.599185,-0.059083,-0.004547,0.130855,0,1
2801,71,-0.783950,-0.013815,0.152757,0.066489,1,1
2836,71,-0.753045,-0.041675,-0.019009,0.059321,1,1
2803,71,-0.760511,0.017271,0.140360,0.075458,1,1
2811,71,-0.779849,0.005783,0.093907,0.189243,1,1
2807,71,-0.695463,-0.063502,0.031002,0.119864,1,1
2821,71,-0.753377,-0.111151,0.010544,0.010666,1,1
2812,71,-0.758091,0.060823,0.047950,0.093051,1,1
2831,71,-0.758007,0.038775,0.067612,0.039626,1,1
2808,71,-0.805881,-0.017720,0.102593,0.093556,1,1
2838,71,-0.765673,-0.079042,0.020961,0.052733,1,1
2830,71,-0.749507,-0.072132,-0.004363,0.024498,1,1
2805,71,-0.737152,-0.046693,0.051837,0.051104,1,1
2809,71,-0.840541,-0.082836,0.046317,0.134544,1,1
2833,71,-0.799895,-0.037092,0.002132,0.072558,1,1
2806,71,-0.797056,0.023155,0.149622,0.116462,1,1
2832,71,-0.758555,-0.036746,0.060886,0.050325,1,1
2800,71,-0.829768,-0.034358,0.081650,0.042384,1,1
2825,71,-0.701166,-0.023730,0.072839,0.080508,1,1
2826,71,-0.731490,0.030103,-0.053729,0.039382,1,1
2828,71,-0.673694,-0.115590,-0.041948,0.044784,1,1
2802,71,-0.812644,-0.064429,0.087782,0.110677,1,1
2829,71,-0.668147,-0.093463,0.027138,-0.041580,1,1
2835,71,-0.725409,-0.042271,-0.000246,-0.029871,1,1
2819,71,-0.860169,0.083150,0.113902,0.067359,1,0
2834,71,-0.707336,-0.112470,0.018545,0.027899,1,1
2817,71,-0.708448,-0.006204,0.206317,0.090641,1,1
2818,71,-0.748892,0.007724,0.108917,0.017779,1,1
2823,71,-0.680710,-0.095528,-0.006427,0.028421,1,1
2810,71,-0.727616,0.060101,0.092773,0.063993,1,1
2820,71,-0.785529,-0.030477,0.008431,0.054556,1,1
2827,71,-0.688922,-0.049011,-0.060419,-0.020502,1,1
2876,72,-0.733364,0.061098,-0.021982,0.103770,1,1
2860,72,-0.692218,0.052573,0.053004,-0.003143,1,1
2849,72,-0.739206,0.076869,0.171082,0.127755,1,1
2858,72,-0.753682,0.015369,0.077406,0.154326,1,1
2869,72,-0.693547,-0.061604,0.021619,0.014419,1,1
2866,72,-0.736549,-0.071059,0.076031,0.075014,1,1
2879,72,-0.732670,-0.083569,-0.010293,0.103338,1,1
2877,72,-0.710473,-0.045091,-0.074584,0.016553,1,1
2875,72,-0.667809,-0.036175,0.081459,0.037138,1,1
2859,72,-0.679244,0.041833,0.154042,0.111476,1,1
2878,72,-0.685152,-0.107144,0.042094,0.032408,1,1
2856,72,-0.775743,-0.018213,0.124700,0.119861,1,1
2840,72,-0.819692,-0.057635,0.014608,0.152080,1,1
2847,72,-0.748157,-0.041173,0.150133,0.151714,1,1
2855,72,-0.790335,-0.033579,0.145785,0.041972,1,1
2868,72,-0.756297,-0.022179,-0.014062,0.013637,1,1
2857,72,-0.833073,0.087116,0.106368,0.097336,1,0
2844,72,-0.762204,0.019809,0.124749,0.056943,1,1
2862,72,-0.711955,0.041967,-0.024968,0.036394,1,1
2861,72,-0.673285,-0.055154,0.029586,0.044544,1,1
2842,72,-0.723983,-0.058835,0.161195,0.068383,1,1
2853,72,-0.767869,-0.031399,-0.045118,0.042540,1,1
2872,72,-0.675421,-0.006342,0.005287,0.028781,1,1
2873,72,-0.754218,-0.061275,0.004683,-0.082781,1,1
2845,72,-0.786198,0.053531,0.149556,0.127173,1,1
2854,72,-0.720468,-0.010977,0.060009,0.087561,1,1
2852,72,-0.703365,-0.024600,0.124040,0.156922,1,1
2863,72,-0.738693,-0.053297,-0.093205,0.102958,1,1
2848,72,-0.825020,-0.008531,0.073841,0.060959,1,1
2874,72,-0.671231,-0.055694,0.013594,-0.065013,1,1
2870,72,-0.660206,-0.077596,-0.010189,0.008820,1,1
2841,72,-0.772687,-0.025971,0.060972,0.077971,1,1
2843,72,-0.832242,-0.029252,0.098585,0.064939,1,1
2867,72,-0.678950,0.025057,0.030344,0.071261,1,1
2865,72,-0.768576,0.026909,0.089530,0.044046,1,1
2871,72,-0.713902,-0.019369,0.009297,0.047457,1,1
2850,72,-0.791266,-0.078287,0.103244,0.097787,1,1
2851,72,-0.809012,-0.011505,0.173802,0.121855,1,1
2864,72,-0.709508,-0.093867,0.118603,0.132459,1,1
2846,72,-0.697660,-0.009895,0.092496,0.000287,1,1
2891,73,-0.724366,-0.007689,0.039474,0.114089,1,1
2912,73,-0.736193,-0.019192,-0.017030,0.004543,1,1
2900,73,-0.708289,0.028250,-0.113436,-0.010348,1,1
2885,73,-0.750030,0.115993,0.052815,0.169490,1,0
2896,73,-0.813574,-0.093110,0.071022,0.188563,1,1
2895,73,-0.768828,-0.015196,0.083566,0.031261,1,1
2919,73,-0.681561,0.028044,-0.006031,-0.064752,1,1
2916,73,-0.707356,0.028802,0.046637,0.067811,1,1
2886,73,-0.769982,0.023143,0.223994,0.119626,1,1
2915,73,-0.769442,-0.028355,0.042758,0.039848,1,1
2910,73,-0.634861,-0.048755,-0.015207,-0.026665,1,1
2893,73,-0.774939,0.088886,0.096209,0.117929,1,1
2888,73,-0.729635,0.074419,0.061069,0.130506,1,1
2884,73,-0.772952,0.001008,0.097020,0.105198,1,1
2906,73,-0.790422,-0.056832,-0.039767,0.024878,1,1
2894,73,-0.819394,0.012547,0.105388,0.095150,1,1
2903,73,-0.780361,-0.103315,-0.076634,0.034446,1,1
2898,73,-0.751090,0.000044,0.146332,0.119857,1,1
2905,73,-0.714774,-0.077938,0.011398,0.066108,1,1
2881,73,-0.739605,-0.003633,0.082234,0.100673,1,1
2880,73,-0.809311,0.014427,0.155538,0.120649,1,1
2907,73,-0.771163,-0.045332,0.019352,-0.014833,1,1
2890,73,-0.773786,0.036750,0.053574,0.151367,1,1
2897,73,-0.834240,0.055606,0.028843,0.041377,1,0
2908,73,-0.746510,-0.061610,-0.081773,0.082236,1,1
2911,73,-0.748621,-0.038821,-0.006607,0.012991,1,1
2918,73,-0.718867,0.048487,0.004514,0.013047,1,1
2917,73,-0.620051,-0.056183,0.049693,0.010782,0,1
2902,73,-0.723107,-0.072082,-0.041855,0.041167,1,1
2899,73,-0.793385,-0.043246,0.039709,0.047581,1,1
2904,73,-0.750777,-0.054622,0.014396,0.076150,1,1
2882,73,-0.695002,-0.041720,0.019667,0.033834,1,1
2887,73,-0.772304,-0.017795,0.119465,0.087493,1,1
2913,73,-0.746300,-0.068114,0.034098,0.016337,1,1
2914,73,-0.696385,-0.106187,0.045274,0.025158,1,1
2909,73,-0.754347,-0.158167,0.012602,0.090435,0,1
2883,73,-0.863004,0.005926,0.138805,0.125910,1,0
2889,73,-0.830622,-0.023133,0.145050,0.099480,1,1
2901,73,-0.809389,-0.044901,-0.019006,0.034778,1,1
2892,73,-0.786834,0.020434,0.110480,0.041884,1,1
2945,74,-0.617319,-0.100684,0.047697,0.057184,0,1
2955,74,-0.655781,-0.153330,-0.063861,-0.031980,0,1
2940,74,-0.690858,0.023295,0.057286,0.061518,1,1
2939,74,-0.754801,0.079522,0.028628,0.166446,1,1
2934,74,-0.798325,-0.025935,0.081921,0.049488,1,1
2947,74,-0.597355,-0.123036,-0.006095,0.038168,0,1
2931,74,-0.752139,-0.095005,0.080698,0.062096,1,1
2932,74,-0.764608,-0.006608,0.040547,0.094886,1,1
2930,74,-0.690026,0.052742,0.102822,0.142120,1,1
2949,74,-0.710891,-0.137249,-0.080750,-0.034472,1,1
2950,74,-0.700019,-0.060449,0.116247,0.014393,1,1
2959,74,-0.629613,0.000882,-0.059125,0.114902,1,1
2958,74,-0.746341,-0.044858,0.025142,-0.041147,1,1
2946,74,-0.671105,-0.052391,-0.046506,0.057453,1,1
2956,74,-0.682012,0.004663,-0.007016,-0.114346,1,1
2944,74,-0.723249,-0.044922,-0.075376,0.083307,1,1
2936,74,-0.739345,0.047396,0.063222,0.173396,1,1
2920,74,-0.878172,0.110545,0.057343,0.089536,1,0
2925,74,-0.706812,-0.073737,0.152000,0.096370,1,1
2937,74,-0.813462,-0.036277,0.040723,0.034980,1,1
2943,74,-0.736221,-0.043464,-0.060571,0.085248,1,1
2938,74,-0.824420,-0.005022,0.072781,0.101948,1,1
2922,74,-0.736333,0.038205,0.107885,0.072170,1,1
2952,74,-0.869502,-0.039095,-0.021643,0.000838,1,1
2953,74,-0.701810,-0.095707,0.024781,-0.049513,1,1
2921,74,-0.667913,-0.025892,0.084233,0.033410,1,1
2926,74,-0.825866,-0.005745,0.052092,0.055412,1,1
2935,74,-0.857715,-0.030375,0.097883,0.112135,1,1
2923,74,-0.771347,0.005580,0.109170,0.179459,1,1
2942,74,-0.730447,-0.139943,-0.028645,0.031651,1,1
2948,74,-0.769217,-0.093626,0.082603,0.001815,1,1
2941,74,-0.617302,-0.062543,0.014764,0.118162,0,1
2933,74,-0.757053,0.064393,0.049736,0.053065,1,1
2924,74,-0.718524,-0.066549,0.097487,0.005030,1,1
2929,74,-0.754178,0.000015,0.165790,0.055660,1,1
2957,74,-0.697136,-0.046984,-0.095066,0.028443,1,1
2928,74,-0.780665,-0.013040,0.113203,0.160272,1,1
2954,74,-0.728412,-0.054099,0.048997,0.054752,1,1
2927,74,-0.740153,-0.028975,0.065677,0.060511,1,1
2951,74,-0.736972,-0.049836,-0.004155,-0.087617,1,1
2983,75,-0.759344,-0.078512,-0.041594,-0.029631,1,1
2984,75,-0.664488,-0.008540,0.031194,0.165128,1,1
2993,75,-0.694289,-0.038764,-0.008870,0.076927,1,1
2961,75,-0.824715,0.012840,0.014473,0.084450,1,1
2995,75,-0.615025,-0.054657,-0.018985,0.099760,0,1
2986,75,-0.792252,-0.099345,0.067083,-0.013035,1,1
2972,75,-0.742889,0.047740,0.024815,0.126077,1,1
2987,75,-0.676793,0.001264,-0.045227,0.003432,1,1
2965,75,-0.734471,-0.006384,-0.034275,0.154743,1,1
2978,75,-0.823506,0.013820,0.154385,0.107916,1,1
2982,75,-0.725377,-0.020599,0.004525,-0.021686,1,1
2966,75,-0.769510,0.054118,0.036458,0.052098,1,1
2994,75,-0.653433,0.015730,0.013462,0.048193,1,1
2992,75,-0.749345,-0.021944,0.024392,-0.024159,1,1
2990,75,-0.673674,-0.083229,0.067041,-0.035839,1,1
2979,75,-0.872854,-0.005403,0.106481,0.069084,1,0
2969,75,-0.803915,-0.034000,0.058439,0.034809,1,1
2974,75,-0.761578,-0.054031,0.145007,0.056564,1,1
2977,75,-0.826168,0.026557,0.084812,0.071132,1,1
2970,75,-0.708633,0.055025,0.161392,0.081845,1,1
2999,75,-0.695536,0.011756,0.039090,0.064022,1,1
2981,75,-0.729994,-0.108760,0.042115,-0.052709,1,1
2963,75,-0.810666,-0.042912,0.078609,0.144929,1,1
2975,75,-0.712788,-0.011157,0.076841,0.075869,1,1
2980,75,-0.623824,-0.012248,0.108637,0.036000,1,1
2976,75,-0.683569,0.040589,0.041262,0.032899,1,1
2964,75,-0.703704,0.080747,0.024000,0.155569,1,1
2998,75,-0.744739,-0.086798,-0.023751,0.044288,1,1
2997,75,-0.715898,0.051093,0.014447,0.025539,1,1
2960,75,-0.758924,-0.028113,0.131610,0.062944,1,1
2967,75,-0.831859,-0.043761,-0.036549,0.069215,1,1
2989,75,-0.795825,0.029915,-0.034052,-0.028492,1,1
2973,75,-0.802171,0.001468,0.057451,0.099878,1,1
2968,75,-0.702050,-0.026325,0.104826,0.054982,1,1
2996,75,-0.711869,-0.054748,0.011753,-0.035052,1,1
2962,75,-0.841466,0.000782,0.122394,-0.002094,1,1
2991,75,-0.817706,-0.085276,-0.073558,0.065053,1,1
2985,75,-0.703110,-0.151046,-0.035080,0.089006,0,1
2988,75,-0.769965,-0.049203,0.030558,0.041771,1,1
2971,75,-0.839301,-0.002940,0.074755,0.072146,1,1
3024,76,-0.725328,-0.091614,-0.067282,-0.018013,1,1
3036,76,-0.734609,-0.033664,0.016125,0.047419,1,1
3000,76,-0.776130,-0.034598,0.078563,0.197532,1,1
3022,76,-0.724210,-0.018656,-0.066030,0.022053,1,1
3004,76,-0.682320,0.065489,0.131990,0.087849,1,1
3018,76,-0.793207,0.021586,0.090445,0.114122,1,1
3034,76,-0.704183,-0.092354,0.082008,0.085833,1,1
3001,76,-0.813876,-0.036732,0.073572,0.073946,1,1
3017,76,-0.777227,-0.014089,0.195023,0.087859,1,1
3021,76,-0.760882,-0.123211,-0.129796,-0.015185,1,1
3023,76,-0.710354,-0.093088,0.056669,-0.018650,1,1
3027,76,-0.689564,-0.045372,0.124574,0.001219,1,1
3020,76,-0.743483,-0.067879,0.031569,0.112545,1,1
3029,76,-0.787904,0.020412,-0.010407,0.037707,1,1
3035,76,-0.700680,-0.082859,-0.028926,0.068410,1,1
3006,76,-0.709687,0.056454,0.053378,0.041984,1,1
3010,76,-0.819222,0.061106,0.102874,0.141313,1,0
3031,76,-0.610858,0.043067,0.053039,-0.009853,0,1
3038,76,-0.717242,-0.019824,0.096377,0.063826,1,1
3032,76,-0.719501,-0.049292,0.039047,0.044349,1,1
3030,76,-0.773935,-0.053060,-0.056412,0.033969,1,1
3003,76,-0.776376,0.049774,0.077890,0.029018,1,1
3015,76,-0.758930,-0.025837,0.166551,0.076990,1,1
3014,76,-0.807025,-0.083812,0.070889,0.031296,1,1
3007,76,-0.713325,0.023142,0.123519,0.128699,1,1
3025,76,-0.796708,-0.083985,-0.092236,0.066875,1,1
3011,76,-0.703080,0.105021,0.083179,0.168703,1,0
3019,76,-0.789772,-0.041708,0.053502,0.145176,1,1
3028,76,-0.736201,-0.051713,0.111165,-0.009107,1,1
3012,76,-0.793590,-0.050203,0.142526,0.083190,1,1
3008,76,-0.696547,0.025159,0.062963,0.018652,1,1
3013,76,-0.735211,0.073060,0.120977,0.008100,1,1
3005,76,-0.840248,-0.006670,0.055829,0.066319,1,1
3039,76,-0.666967,-0.058373,-0.064039,-0.001804,1,1
3037,76,-0.705816,-0.025298,-0.077978,0.051818,1,1
3002,76,-0.756905,0.036778,0.095584,0.082526,1,1
3016,76,-0.778706,0.027100,0.074557,0.050706,1,1
3033,76,-0.707168,-0.073844,0.021791,0.056038,1,1
3026,76,-0.703730,-0.018015,-0.049260,0.117597,1,1
3009,76,-0.835546,0.023355,0.147422,0.048777,1,1
3070,77,-0.587260,-0.103501,-0.069280,-0.000422,0,1
3057,77,-0.740456,-0.028407,0.182536,0.180830,1,1
3046,77,-0.839696,-0.011700,0.055843,0.034087,1,1
3041,77,-0.843453,-0.017773,0.080879,0.120173,1,1
3058,77,-0.775700,-0.019838,0.082238,0.042965,1,1
3063,77,-0.790728,-0.024804,-0.002876,0.015766,1,1
3051,77,-0.780440,0.047691,0.110856,0.152633,1,1
3060,77,-0.706482,-0.014428,-0.047253,-0.025223,1,1
3047,77,-0.763158,0.026042,0.140157,0.018007,1,1
3048,77,-0.718509,0.026295,0.112556,0.076351,1,1
3055,77,-0.759391,0.096264,0.084828,0.032064,1,0
3075,77,-0.603605,-0.094940,0.020568,0.029690,0,1
3074,77,-0.813134,-0.084276,0.003167,-0.039034,1,1
3054,77,-0.786033,-0.044887,0.089198,0.136909,1,1
3065,77,-0.676048,-0.187698,-0.003579,0.051586,0,1
3079,77,-0.619659,-0.054773,-0.052249,0.041695,0,1
3042,77,-0.780776,-0.064351,0.080785,0.135880,1,1
3064,77,-0.695073,-0.057595,-0.024396,0.111849,1,1
3056,77,-0.706555,0.084007,0.103087,0.098278,1,1
3045,77,-0.777113,-0.005744,0.121800,0.066599,1,1
3052,77,-0.712966,0.026161,0.093091,0.088927,1,1
3053,77,-0.792995,-0.031934,0.043733,0.054799,1,1
3072,77,-0.784848,-0.038916,-0.014057,0.004783,1,1
3073,77,-0.754827,0.005921,0.001670,0.064546,1,1
3040,77,-0.774785,-0.064065,0.060211,0.083187,1,1
3061,77,-0.681505,-0.065530,-0.003629,0.015604,1,1
3049,77,-0.756693,-0.020978,0.092415,0.117008,1,1
3043,77,-0.857488,0.044595,0.084119,0.149309,1,0
3062,77,-0.712909,-0.058962,-0.035349,0.057412,1,1
3077,77,-0.671846,-0.088277,-0.049392,0.011989,1,1
3066,77,-0.666678,-0.036059,-0.072301,0.030410,1,1
3044,77,-0.764348,-0.011794,0.151140,0.062363,1,1
3059,77,-0.704687,-0.033865,0.156853,0.076657,1,1
3071,77,-0.684655,-0.078411,0.020963,0.111111,1,1
3078,77,-0.776307,-0.107586,0.090112,-0.064199,1,1
3068,77,-0.714691,0.018469,0.140069,0.072691,1,1
3067,77,-0.857606,-0.079134,-0.052708,0.060894,1,1
3076,77,-0.641339,-0.067321,-0.015692,0.104447,1,1
3050,77,-0.761008,-0.006657,0.144426,0.124364,1,1
3069,77,-0.671596,-0.141110,0.081237,0.074827,0,1
3093,78,-0.768175,-0.039862,0.110689,0.096349,1,1
3107,78,-0.748507,-0.094776,0.039992,-0.060714,1,1
3083,78,-0.764149,0.009431,0.093782,0.038412,1,1
3100,78,-0.752898,0.026438,0.019724,0.058205,1,1
3090,78,-0.863893,0.027572,0.097681,0.128110,1,0
3102,78,-0.769639,0.000626,-0.044146,0.015308,1,1
3106,78,-0.679909,-0.038812,-0.017176,-0.085429,1,1
3104,78,-0.650925,-0.026386,0.032538,0.014669,1,1
3112,78,-0.680166,0.018977,-0.005189,0.056016,1,1
3116,78,-0.777352,-0.028262,0.043433,0.055548,1,1
3119,78,-0.744341,-0.143833,-0.024839,0.025866,1,1
3085,78,-0.750130,-0.025518,0.144507,0.084074,1,1
3114,78,-0.727181,-0.099884,0.055350,0.021906,1,1
3110,78,-0.690811,-0.119254,0.036199,0.001083,1,1
3084,78,-0.811801,-0.008983,0.086479,-0.028417,1,1
3099,78,-0.771235,0.062242,0.070267,0.084679,1,1
3117,78,-0.773475,-0.059611,-0.009916,0.074075,1,1
3118,78,-0.676537,0.026208,0.043883,0.043918,1,1
3081,78,-0.703694,-0.025582,0.095147,0.122296,1,1
3095,78,-0.779184,-0.054324,0.165140,0.011103,1,1
3088,78,-0.743545,-0.012009,0.113648,0.025247,1,1
3092,78,-0.784145,0.021258,0.050811,0.117628,1,1
3111,78,-0.748688,-0.069562,-0.067871,-0.058490,1,1
3101,78,-0.614631,-0.062677,0.126899,-0.002628,0,1
3082,78,-0.813067,0.042340,0.113135,-0.002602,1,1
3103,78,-0.752457,-0.086391,-0.042489,0.048614,1,1
3113,78,-0.733647,-0.059482,-0.061755,0.052383,1,1
3098,78,-0.768103,-0.110453,0.137340,0.026504,1,1
3094,78,-0.717473,0.008252,0.056029,0.113227,1,1
3086,78,-0.769584,-0.010899,0.123816,0.097494,1,1
3108,78,-0.776346,-0.010462,-0.079237,0.064255,1,1
3089,78,-0.723172,0.059743,0.040647,0.054654,1,1
3087,78,-0.783323,0.006533,0.152023,0.195091,1,1
3115,78,-0.704665,-0.067406,-0.016366,-0.042550,1,1
3105,78,-0.716809,-0.061030,-0.063469,0.023809,1,1
3096,78,-0.782057,-0.024694,0.071894,0.130757,1,1
3091,78,-0.768825,-0.022867,0.142798,0.104532,1,1
3109,78,-0.727674,-0.092798,-0.078754,0.000203,1,1
3080,78,-0.828722,0.011020,0.089874,0.072352,1,1
3097,78,-0.815365,-0.109762,0.081925,0.014832,1,1
3159,79,-0.746983,-0.026922,-0.013285,0.013463,1,1
3125,79,-0.697169,0.006293,0.151134,0.118052,1,1
3136,79,-0.757332,0.048734,0.068400,0.148559,1,1
3142,79,-0.713503,-0.069542,-0.073463,0.031534,1,1
3151,79,-0.678742,-0.034270,-0.069188,-0.012067,1,1
3147,79,-0.794716,0.018509,-0.010067,0.084133,1,1
3123,79,-0.712329,-0.020375,0.084563,0.145266,1,1
3128,79,-0.769730,0.013056,0.168760,0.076667,1,1
3129,79,-0.820836,0.035231,0.198746,0.016403,1,1
3122,79,-0.808604,-0.024875,0.128564,0.045236,1,1
3148,79,-0.757642,-0.023991,0.057651,-0.034227,1,1
3120,79,-0.839371,-0.043860,0.157846,0.057037,1,1
3153,79,-0.671559,-0.050464,0.114910,0.005001,1,1
3138,79,-0.821709,-0.066579,0.141571,0.130566,1,1
3157,79,-0.774534,-0.107992,0.007635,0.089512,1,1
3158,79,-0.729135,-0.039726,0.146638,-0.005789,1,1
3133,79,-0.750794,-0.020781,0.233557,0.070997,1,1
3121,79,-0.785273,-0.060750,0.097628,0.048029,1,1
3137,79,-0.771712,0.021557,0.052619,0.066819,1,1
3126,79,-0.714862,-0.021628,0.122389,0.051927,1,1
3134,79,-0.709488,-0.001204,0.102327,0.083821,1,1
3156,79,-0.812886,-0.062007,0.014296,0.040117,1,1
3143,79,-0.640853,-0.062922,0.040974,-0.013417,1,1
3146,79,-0.786253,-0.035880,-0.021372,-0.031806,1,1
3135,79,-0.757908,-0.028199,0.087994,0.157885,1,1
3149,79,-0.719471,-0.126790,0.030854,0.086572,1,1
3132,79,-0.813274,0.054842,0.101234,0.111749,1,1
3127,79,-0.730261,0.041002,0.171113,0.085591,1,1
3124,79,-0.731749,-0.086988,0.146565,0.084302,1,1
3130,79,-0.745571,0.043487,0.127903,0.011812,1,1
3131,79,-0.771175,0.045572,0.079869,0.063878,1,1
3144,79,-0.605662,-0.034934,0.039130,-0.012673,0,1
3152,79,-0.701447,0.045569,0.048416,-0.030110,1,1
3140,79,-0.631916,-0.099395,-0.023276,0.080844,0,1
3141,79,-0.697985,-0.057087,-0.074809,0.096959,1,1
3139,79,-0.794730,-0.002853,0.133457,0.044819,1,1
3145,79,-0.641024,-0.123375,0.003486,0.016487,0,1
3150,79,-0.759478,-0.025524,-0.000970,0.134661,1,1
3154,79,-0.814458,-0.101596,-0.041694,0.056976,1,1
3155,79,-0.646732,-0.067173,0.040661,0.010821,1,1
3197,80,-0.695516,-0.040068,-0.007661,-0.016718,1,1
3174,80,-0.782436,-0.009031,0.201870,0.153464,1,1
3183,80,-0.732434,-0.052647,0.034881,0.057494,1,1
3186,80,-0.663782,-0.052117,0.020996,0.036221,1,1
3198,80,-0.777155,-0.014125,0.071542,0.044652,1,1
3182,80,-0.725971,-0.048528,0.028870,0.094245,1,1
3192,80,-0.702590,-0.115505,0.005468,0.110180,1,1
3188,80,-0.659129,-0.094296,0.084238,-0.042881,1,1
3171,80,-0.731073,0.009561,0.154185,0.032137,1,1
3180,80,-0.616143,0.029886,0.026227,0.033610,1,1
3178,80,-0.837644,-0.020902,0.035639,0.169650,1,1
3175,80,-0.796511,0.067459,0.061650,0.085349,1,1
3181,80,-0.716469,0.024601,-0.006870,0.111447,1,1
3179,80,-0.804519,0.072885,0.049423,0.106058,1,0
3184,80,-0.711689,-0.086110,0.000272,0.086485,1,1
3163,80,-0.868169,-0.034525,0.088947,0.091919,1,0
3164,80,-0.798717,0.014334,0.129900,0.047700,1,1
3169,80,-0.771894,-0.076291,0.165093,0.090922,1,1
3160,80,-0.743431,-0.006832,0.074523,0.108748,1,1
3176,80,-0.744759,0.010840,0.147494,0.059657,1,1
3168,80,-0.715625,0.014879,0.066059,0.050927,1,1
3162,80,-0.828714,-0.014918,0.029193,0.025229,1,1
3195,80,-0.776097,-0.090835,0.077394,0.074506,1,1
3190,80,-0.748107,-0.007491,0.036765,0.045555,1,1
3161,80,-0.740179,-0.035509,0.076590,0.133406,1,1
3170,80,-0.737238,-0.056986,0.111869,0.087489,1,1
3189,80,-0.590448,-0.008299,0.007713,0.025139,0,1
3185,80,-0.667969,-0.048837,-0.014131,0.063169,1,1
3177,80,-0.758786,-0.014115,0.037866,0.075207,1,1
3191,80,-0.612440,-0.068826,-0.025267,0.033066,0,1
3193,80,-0.728760,0.092721,-0.004908,0.052679,1,1
3194,80,-0.773728,-0.002220,0.014830,-0.004261,1,1
3199,80,-0.651068,-0.049099,0.038204,-0.036455,1,1
3166,80,-0.718575,0.050672,0.144697,0.083321,1,1
3165,80,-0.760908,0.057530,0.099714,0.137314,1,1
3173,80,-0.745371,-0.000517,0.111571,0.112818,1,1
3187,80,-0.651470,0.034541,-0.120158,0.086692,1,1
3167,80,-0.753648,-0.047081,0.035974,0.069866,1,1
3196,80,-0.664520,-0.002585,0.056558,-0.006451,1,1
3172,80,-0.748482,0.094254,0.044881,0.215846,1,1
3234,81,-0.811903,-0.039134,0.036839,0.025375,1,1
3203,81,-0.726180,-0.061313,0.102091,0.149409,1,1
3208,81,-0.671564,0.043071,0.110479,0.143676,1,1
3233,81,-0.666906,-0.083156,-0.051538,-0.043865,1,1
3224,81,-0.739766,-0.053104,-0.055150,0.065214,1,1
3216,81,-0.705233,0.026262,0.015777,0.163233,1,1
3213,81,-0.854316,-0.018038,0.127824,0.143960,1,0
3201,81,-0.755381,0.027021,0.045936,0.159467,1,1
3222,81,-0.730140,-0.014295,0.014774,0.029754,1,1
3202,81,-0.814251,-0.046247,0.041076,0.113323,1,1
3220,81,-0.667453,-0.072379,-0.031039,-0.038655,1,1
3212,81,-0.792980,-0.016436,0.087462,0.048762,1,1
3236,81,-0.733770,-0.127286,0.038887,0.065988,1,1
3207,81,-0.799732,-0.087987,0.042044,0.051337,1,1
3209,81,-0.782429,0.050081,0.051892,0.033656,1,1
3218,81,-0.745477,0.124961,0.206282,0.144992,1,0
3225,81,-0.691535,-0.123557,0.013455,0.013570,1,1
3219,81,-0.795752,-0.051594,0.164143,0.099250,1,1
3237,81,-0.734563,-0.046696,-0.062880,0.107230,1,1
3217,81,-0.658941,-0.033811,0.207683,0.041690,1,1
3200,81,-0.700321,0.055322,0.089198,0.083342,1,1
3205,81,-0.773318,0.069769,0.163013,0.113433,1,1
3215,81,-0.721668,0.022676,0.087440,0.177090,1,1
3227,81,-0.601453,-0.029446,-0.022868,0.007569,0,1
3239,81,-0.677637,-0.048904,0.048953,0.003227,1,1
3204,81,-0.726889,-0.033706,0.116725,0.066857,1,1
3238,81,-0.759177,-0.009656,0.034348,0.220807,1,1
3221,81,-0.659084,-0.029604,-0.019679,-0.009296,1,1
3229,81,-0.691721,-0.111007,0.003662,-0.034416,1,1
3230,81,-0.716720,-0.009497,-0.047315,0.041933,1,1
3226,81,-0.754604,0.039360,0.031939,0.023996,1,1
3223,81,-0.698469,-0.012865,0.013649,-0.020329,1,1
3228,81,-0.665848,-0.037011,0.086356,0.020535,1,1
3211,81,-0.756860,-0.018942,0.082505,0.055417,1,1
3206,81,-0.762964,0.044979,0.104298,0.013250,1,1
3231,81,-0.772025,-0.022730,0.122839,0.047484,1,1
3235,81,-0.674510,-0.066499,-0.011041,-0.023361,1,1
3210,81,-0.646379,-0.127982,0.052552,0.068910,1,1
3214,81,-0.810529,0.013462,0.116612,0.109599,1,1
3232,81,-0.623970,-0.016603,-0.063575,0.057802,1,1
3244,82,-0.809961,0.017234,0.086172,0.097945,1,1
3260,82,-0.790434,0.056126,-0.044630,0.033434,1,1
3242,82,-0.754181,0.041464,0.067600,0.013157,1,1
3240,82,-0.727656,-0.103419,0.117914,-0.094610,1,1
3262,82,-0.697422,-0.066997,0.036839,-0.030710,1,1
3279,82,-0.733109,-0.074842,0.017633,-0.059187,1,1
3249,82,-0.782846,-0.015458,0.098060,0.062031,1,1
3245,82,-0.780643,-0.011994,0.099655,0.069868,1,1
3251,82,-0.818652,0.021014,0.136886,-0.024633,1,1
3270,82,-0.667705,-0.075699,0.040812,0.073704,1,1
3266,82,-0.699761,-0.068227,0.049326,0.014390,1,1
3252,82,-0.768354,0.059609,0.076673,0.202982,1,1
3254,82,-0.678193,-0.025801,0.145273,0.072745,1,1
3250,82,-0.781292,-0.056205,0.091120,-0.031797,1,1
3258,82,-0.720440,-0.024130,0.087181,0.031777,1,1
3278,82,-0.742036,0.029129,-0.062078,0.019305,1,1
3257,82,-0.679467,-0.031162,0.130146,0.033293,1,1
3277,82,-0.677627,-0.014141,-0.060522,0.053560,1,1
3271,82,-0.665320,-0.112755,0.002923,-0.000861,1,1
3248,82,-0.754974,0.032226,0.141627,0.082548,1,1
3272,82,-0.694623,-0.086663,-0.030165,0.049364,1,1
3263,82,-0.778008,-0.064217,0.084821,0.018008,1,1
3274,82,-0.660115,-0.154521,-0.017111,0.057883,0,1
3273,82,-0.794743,-0.043984,-0.012014,0.027731,1,1
3253,82,-0.805642,-0.002786,0.186839,0.105250,1,1
3256,82,-0.794678,0.085300,0.150989,0.072652,1,0
3243,82,-0.725797,-0.025333,0.064789,0.136304,1,1
3255,82,-0.834721,0.044560,-0.027778,0.156381,1,0
3246,82,-0.705151,-0.126354,0.090816,0.077129,1,1
3275,82,-0.731401,-0.007477,0.008857,0.069326,1,1
3264,82,-0.654019,0.005171,-0.042986,0.018825,1,1
3247,82,-0.757423,0.012125,0.112305,0.158323,1,1
3265,82,-0.671202,-0.045795,0.003854,0.071546,1,1
3269,82,-0.709598,-0.054548,0.003328,0.050829,1,1
3259,82,-0.743589,-0.077502,0.104437,-0.061150,1,1
3267,82,-0.689925,-0.040814,-0.028174,0.008196,1,1
3268,82,-0.589395,-0.096473,-0.030506,0.027820,0,1
3261,82,-0.686393,-0.052083,0.105634,-0.000564,1,1
3276,82,-0.715538,-0.003365,0.036224,0.062376,1,1
3241,82,-0.760780,0.051549,0.163463,0.069535,1,1
3314,83,-0.743927,0.023948,-0.013968,-0.111463,1,1
3289,83,-0.825288,-0.002414,0.096835,0.145812,1,1
3311,83,-0.738290,-0.107858,-0.046105,-0.053160,1,1
3310,83,-0.607643,-0.154059,0.026168,0.001034,0,1
3316,83,-0.712504,-0.022432,-0.008345,0.077190,1,1
3302,83,-0.713670,-0.018887,0.022949,-0.055481,1,1
3285,83,-0.725096,-0.050325,0.141117,0.072148,1,1
3282,83,-0.790601,0.021694,0.116414,0.088763,1,1
3297,83,-0.754198,0.017863,0.082796,0.096181,1,1
3301,83,-0.640129,-0.026743,-0.019680,0.010793,1,1
3294,83,-0.711358,-0.075936,0.002721,0.152354,1,1
3309,83,-0.760853,-0.032059,-0.084565,0.047942,1,1
3280,83,-0.698438,-0.044200,0.133654,0.095258,1,1
3317,83,-0.752501,0.004813,-0.049653,-0.030478,1,1
3295,83,-0.713800,0.018905,0.091103,0.080500,1,1
3303,83,-0.690617,-0.002601,0.013448,-0.017925,1,1
3298,83,-0.786992,0.054978,0.087332,0.069395,1,1
3292,83,-0.915333,-0.035788,0.155050,0.096496,1,0
3299,83,-0.777566,-0.030450,0.106941,0.115821,1,1
3318,83,-0.750028,-0.034052,-0.015928,-0.042309,1,1
3287,83,-0.733801,-0.003693,0.074934,0.124957,1,1
3315,83,-0.732092,0.027904,-0.037785,-0.098702,1,1
3313,83,-0.708524,0.014993,-0.055708,-0.046179,1,1
3319,83,-0.712206,-0.066208,-0.012038,0.034604,1,1
3304,83,-0.695637,-0.021237,-0.032534,0.008694,1,1
3296,83,-0.661170,0.003735,0.132215,0.034298,1,1
3307,83,-0.726327,-0.066321,0.067887,-0.048108,1,1
3286,83,-0.678994,0.073111,0.040692,0.101914,1,1
3281,83,-0.708685,-0.052229,0.069262,0.089655,1,1
3300,83,-0.711849,-0.062296,-0.032276,-0.063306,1,1
3284,83,-0.751991,-0.053916,0.150282,0.006392,1,1
3291,83,-0.730809,0.008373,0.076780,0.088311,1,1
3305,83,-0.682692,-0.004868,-0.051558,-0.107607,1,1
3288,83,-0.770469,0.000916,0.066918,0.035712,1,1
3290,83,-0.721507,-0.051467,0.124077,0.077595,1,1
3312,83,-0.725677,-0.031311,-0.061530,0.040403,1,1
3283,83,-0.681559,0.002315,0.073441,0.080130,1,1
3308,83,-0.648467,-0.027079,-0.099371,-0.062620,1,1
3293,83,-0.775070,-0.040914,0.085714,0.091795,1,1
3306,83,-0.647311,-0.059597,-0.042978,0.006562,1,1
3338,84,-0.761758,0.008105,0.060929,0.061040,1,1
3354,84,-0.762599,0.029004,-0.020512,-0.020227,1,1
3342,84,-0.720047,-0.083233,-0.124370,-0.130971,1,1
3357,84,-0.653011,0.015536,-0.031383,-0.025376,1,1
3343,84,-0.707704,-0.040071,-0.051786,-0.036136,1,1
3324,84,-0.719187,-0.098324,0.093403,0.063022,1,1
3321,84,-0.742268,-0.024648,0.106410,0.110744,1,1
3335,84,-0.760540,-0.063519,0.029009,0.118279,1,1
3345,84,-0.789453,-0.013562,-0.017361,-0.007728,1,1
3329,84,-0.682619,0.018120,0.066896,0.154080,1,1
3331,84,-0.721372,0.066784,0.204120,0.068052,1,1
3330,84,-0.778225,-0.052178,0.151820,0.079294,1,1
3340,84,-0.612941,-0.079970,0.013544,-0.076777,0,1
3353,84,-0.723624,-0.023218,-0.037839,-0.084093,1,1
3355,84,-0.705453,-0.070665,0.023975,0.028392,1,1
3349,84,-0.688904,-0.022696,-0.089113,-0.040880,1,1
3325,84,-0.742314,0.049472,0.098357,0.106912,1,1
3350,84,-0.683447,0.019651,0.004955,-0.096075,1,1
3323,84,-0.802629,0.055790,0.179685,0.088463,1,1
3328,84,-0.889365,-0.024269,0.064318,0.089747,1,0
3344,84,-0.708345,-0.067022,-0.065935,-0.102787,1,1
3337,84,-0.825798,0.036751,0.043276,0.061650,1,0
3352,84,-0.611650,0.031305,-0.058093,-0.027856,0,1
3334,84,-0.819761,-0.115686,0.051032,0.061580,1,1
3341,84,-0.702111,-0.018226,-0.056501,0.002921,1,1
3333,84,-0.759811,-0.058844,0.121556,0.120969,1,1
3358,84,-0.624333,-0.057175,0.018595,0.036269,1,1
3347,84,-0.715960,-0.094252,-0.120131,0.045852,1,1
3336,84,-0.732890,0.084467,0.097754,0.070477,1,1
3356,84,-0.746642,-0.011993,0.006789,-0.025647,1,1
3339,84,-0.815951,0.032765,0.060386,0.060425,1,1
3320,84,-0.771259,0.047545,0.172943,0.101895,1,1
3348,84,-0.728942,-0.046856,0.090355,-0.055676,1,1
3359,84,-0.709839,-0.087845,-0.050692,-0.037533,1,1
3327,84,-0.753002,-0.026836,0.140204,0.018170,1,1
3326,84,-0.786068,0.052598,0.184483,0.190316,1,1
3332,84,-0.699284,0.056106,0.129303,0.017616,1,1
3351,84,-0.701001,-0.179898,-0.116788,-0.051370,0,1
3346,84,-0.744407,-0.055887,0.008179,-0.098307,1,1
3322,84,-0.701924,0.010202,0.122223,0.087087,1,1
3385,85,-0.610124,-0.036749,-0.030766,-0.012649,0,1
3360,85,-0.794778,-0.043458,0.082165,0.154314,1,1
3378,85,-0.772306,-0.032183,0.078300,0.018358,1,1
3386,85,-0.708743,0.029541,0.024481,-0.088665,1,1
3364,85,-0.767339,0.008430,0.142667,0.153652,1,1
3387,85,-0.637124,-0.059332,-0.030472,-0.079572,1,1
3368,85,-0.806848,0.047223,0.018211,0.096378,1,1
3392,85,-0.758057,-0.029622,-0.085062,-0.112893,1,1
3379,85,-0.752383,0.043223,0.107608,0.063343,1,1
3398,85,-0.759261,0.018995,-0.052229,0.133107,1,1
3370,85,-0.763028,0.044984,0.080380,0.051304,1,1
3372,85,-0.660173,0.054671,0.058061,0.059774,1,1
3391,85,-0.723889,-0.015083,0.010460,-0.000578,1,1
3399,85,-0.715064,-0.042280,-0.002009,-0.021789,1,1
3384,85,-0.730265,-0.098157,-0.163883,-0.088214,1,1
3380,85,-0.686946,-0.082199,-0.105643,-0.106089,1,1
3377,85,-0.860267,0.050027,0.085081,0.029726,1,0
3389,85,-0.642920,0.000858,-0.027709,0.115223,1,1
3395,85,-0.616857,0.054436,-0.009708,0.006228,0,1
3397,85,-0.680580,0.021794,-0.088503,-0.072459,1,1
3367,85,-0.737317,-0.033025,0.091622,0.027905,1,1
3369,85,-0.729268,0.010075,0.096595,0.135914,1,1
3393,85,-0.789909,0.004013,-0.005935,-0.017261,1,1
3390,85,-0.724708,-0.031541,-0.050576,0.037297,1,1
3366,85,-0.737335,0.004530,0.172471,-0.027082,1,1
3376,85,-0.790107,-0.082019,0.196789,0.057949,1,1
3371,85,-0.746249,-0.044067,0.045144,0.100228,1,1
3381,85,-0.673617,-0.032583,0.052390,0.087763,1,1
3361,85,-0.695673,0.011706,0.108423,0.083086,1,1
3373,85,-0.722488,-0.073932,0.137122,0.057800,1,1
3362,85,-0.820585,0.051796,0.120250,0.041750,1,0
3365,85,-0.725518,-0.051725,0.085332,0.128450,1,1
3383,85,-0.651166,-0.046344,-0.039369,-0.057540,1,1
3388,85,-0.817833,-0.123178,-0.083690,0.006094,1,1
3394,85,-0.739954,-0.000813,-0.003464,0.053406,1,1
3396,85,-0.650933,-0.036831,-0.042368,0.100066,1,1
3363,85,-0.676662,-0.084360,0.101793,-0.013285,1,1
3375,85,-0.652262,0.030249,0.058892,0.012865,1,1
3374,85,-0.776171,0.046035,0.089666,0.127649,1,1
3382,85,-0.705060,-0.125742,0.010458,-0.114641,1,1
3403,86,-0.831124,-0.043266,0.161674,0.088656,1,1
3404,86,-0.667518,0.009700,0.143139,0.057008,1,1
3438,86,-0.714534,-0.066924,-0.074458,0.035183,1,1
3410,86,-0.698874,-0.058257,0.138995,0.175924,1,1
3432,86,-0.690681,-0.104892,0.011573,-0.113585,1,1
3428,86,-0.768701,-0.002866,-0.056481,-0.074079,1,1
3407,86,-0.763232,0.018895,0.112027,0.052843,1,1
3405,86,-0.722857,-0.115740,0.157032,0.095683,1,1
3415,86,-0.707679,0.039881,0.098026,0.061006,1,1
3433,86,-0.720451,-0.092116,-0.061315,-0.078226,1,1
3413,86,-0.824464,-0.101558,0.203098,0.109133,1,1
3412,86,-0.694025,-0.110131,0.159693,0.057971,1,1
3417,86,-0.784801,-0.012571,0.104549,0.054219,1,1
3431,86,-0.582876,0.030432,0.052730,-0.054299,0,1
3409,86,-0.820146,-0.071509,0.082872,0.128203,1,1
3420,86,-0.752086,-0.102352,-0.153893,-0.070848,1,1
3422,86,-0.757102,-0.066634,-0.056047,-0.116082,1,1
3437,86,-0.701531,-0.021592,-0.032078,-0.016513,1,1
3426,86,-0.709925,-0.037269,0.020787,-0.120865,1,1
3416,86,-0.769294,0.010737,0.093959,0.026505,1,1
3406,86,-0.738748,-0.066979,0.115145,0.102254,1,1
3400,86,-0.791831,-0.043533,0.052066,0.096306,1,1
3439,86,-0.709013,-0.059081,-0.085024,-0.032498,1,1
3424,86,-0.759013,-0.004350,0.022469,-0.001979,1,1
3418,86,-0.754352,0.020964,0.139289,0.074601,1,1
3435,86,-0.700853,-0.040394,-0.088155,0.014035,1,1
3436,86,-0.669155,-0.012463,-0.044394,-0.091500,1,1
3421,86,-0.666852,-0.037448,-0.118234,0.052861,1,1
3427,86,-0.701962,-0.116669,-0.026691,0.051900,1,1
3434,86,-0.606431,-0.014149,-0.066470,0.017283,0,1
3408,86,-0.801911,0.028087,0.119709,0.069664,1,1
3419,86,-0.665380,-0.034048,0.110704,0.171795,1,1
3414,86,-0.811980,-0.028200,0.173399,0.105725,1,1
3430,86,-0.735515,-0.080812,-0.089072,0.038411,1,1
3401,86,-0.720805,0.031419,0.102470,-0.052945,1,1
3411,86,-0.802791,-0.014267,0.086187,0.113052,1,1
3429,86,-0.737495,-0.024062,-0.180553,-0.108080,1,1
3402,86,-0.684263,-0.142388,0.078645,0.070121,1,1
3425,86,-0.774533,-0.020808,-0.105777,-0.050013,1,1
3423,86,-0.697573,0.013073,-0.068256,0.065518,1,1
3460,87,-0.668149,-0.005255,-0.073926,-0.011928,1,1
3461,87,-0.643810,-0.016214,-0.066220,-0.068643,1,1
3462,87,-0.690979,-0.114849,0.019230,-0.039851,1,1
3465,87,-0.579119,-0.035265,-0.075702,-0.001077,0,1
3479,87,-0.706825,-0.021327,0.013210,-0.009036,1,1
3464,87,-0.652076,-0.087172,0.006928,-0.019664,1,1
3450,87,-0.771692,-0.017060,0.097995,-0.038565,1,1
3470,87,-0.613334,-0.020719,0.027412,0.068248,1,1
3468,87,-0.688855,-0.054399,-0.008762,-0.060950,1,1
3454,87,-0.697389,0.002986,0.102378,0.130147,1,1
3473,87,-0.719371,-0.057553,-0.040147,0.010584,1,1
3442,87,-0.765509,-0.088438,0.106382,0.039436,1,1
3467,87,-0.706403,-0.003441,-0.088831,0.033156,1,1
3474,87,-0.783917,0.005027,0.007403,-0.003512,1,1
3443,87,-0.751937,0.029188,0.109380,0.045993,1,1
3447,87,-0.739156,-0.097869,0.126670,0.044859,1,1
3478,87,-0.686391,-0.064890,-0.031599,-0.063002,1,1
3445,87,-0.658189,0.063695,0.134273,0.076774,1,1
3472,87,-0.742195,-0.067523,-0.074148,-0.085708,1,1
3446,87,-0.741112,-0.024228,0.109403,0.101017,1,1
3448,87,-0.762724,-0.035958,0.074639,0.154593,1,1
3466,87,-0.545877,0.001232,-0.003905,-0.076132,0,1
3444,87,-0.740427,-0.062854,0.060185,0.117846,1,1
3471,87,-0.595525,-0.069976,0.042981,-0.065693,0,1
3457,87,-0.744812,-0.046280,0.060780,0.085771,1,1
3455,87,-0.720803,0.024920,0.169787,0.094725,1,1
3459,87,-0.809027,0.006695,0.101639,0.098317,1,1
3440,87,-0.741905,-0.000109,0.116158,0.007359,1,1
3451,87,-0.751507,0.046665,0.130488,-0.035975,1,1
3476,87,-0.618646,-0.168233,0.046508,-0.001427,0,1
3463,87,-0.715953,-0.038390,-0.009370,0.056517,1,1
3456,87,-0.799279,-0.108984,0.073256,0.072571,1,1
3453,87,-0.735291,-0.060936,0.027880,0.095512,1,1
3452,87,-0.738318,0.004309,0.123709,0.097582,1,1
3449,87,-0.795488,-0.001029,0.178210,0.150850,1,1
3469,87,-0.740257,-0.062917,0.070623,-0.006360,1,1
3477,87,-0.741234,-0.110688,-0.067732,-0.087214,1,1
3475,87,-0.681548,-0.033011,0.021568,0.035307,1,1
3458,87,-0.765902,-0.025536,0.068395,0.136172,1,1
3441,87,-0.684154,0.057801,0.022907,0.089291,1,1
3499,88,-0.770349,0.072504,0.023207,0.089642,1,1
3507,88,-0.609435,-0.050717,-0.092899,0.078053,0,1
3513,88,-0.654639,-0.037706,-0.058994,0.024961,1,1
3516,88,-0.672260,-0.003611,0.078437,0.078936,1,1
3481,88,-0.849607,-0.119984,0.218444,0.098804,1,0
3498,88,-0.762239,-0.074952,0.153292,0.084217,1,1
3500,88,-0.705690,-0.016270,-0.110055,-0.080143,1,1
3506,88,-0.786741,-0.129831,0.015509,0.042664,1,1
3515,88,-0.585322,-0.054448,-0.060176,-0.012188,0,1
3480,88,-0.710236,0.015410,0.130123,0.115520,1,1
3502,88,-0.668154,-0.092802,-0.042251,-0.081227,1,1
3489,88,-0.832031,0.075692,0.096202,0.104349,1,0
3497,88,-0.738266,-0.009542,0.157797,0.134171,1,1
3505,88,-0.690376,-0.139962,-0.072712,-0.090256,0,1
3518,88,-0.756820,-0.055522,0.009604,-0.046808,1,1
3501,88,-0.655050,-0.058554,-0.015297,-0.097565,1,1
3514,88,-0.723982,-0.101509,-0.117766,0.023804,1,1
3509,88,-0.696878,-0.034142,-0.039643,-0.011809,1,1
3512,88,-0.698100,-0.188555,-0.037379,-0.029815,0,1
3511,88,-0.687828,-0.069254,-0.013964,-0.015364,1,1
3492,88,-0.771002,0.015287,0.192094,0.117340,1,1
3486,88,-0.723845,-0.046895,0.094712,0.091068,1,1
3482,88,-0.764364,-0.096458,0.170622,0.026062,1,1
3519,88,-0.724910,-0.114685,-0.024389,-0.029098,1,1
3487,88,-0.765404,-0.075820,0.166858,0.035534,1,1
3494,88,-0.767372,-0.052254,0.126971,0.077358,1,1
3485,88,-0.828260,-0.018083,0.136605,-0.041077,1,1
3484,88,-0.793881,0.017275,0.019287,0.104116,1,1
3483,88,-0.730562,0.099482,0.069890,0.115221,1,0
3503,88,-0.705913,-0.084774,-0.019570,0.013331,1,1
3495,88,-0.713948,-0.090331,0.082680,0.030041,1,1
3490,88,-0.715630,0.139148,0.064406,0.190303,1,0
3491,88,-0.732301,0.041134,0.036456,0.006255,1,1
3517,88,-0.558652,-0.144887,-0.040784,-0.025962,0,1
3488,88,-0.814266,0.031494,0.061276,0.020894,1,1
3496,88,-0.752210,0.105259,0.125814,0.160061,1,0
3510,88,-0.748555,-0.059369,0.029562,-0.136297,1,1
3493,88,-0.780129,-0.014935,0.115496,0.075990,1,1
3508,88,-0.719109,-0.103043,-0.100457,-0.009163,1,1
3504,88,-0.761300,-0.012924,-0.076847,-0.082040,1,1
3528,89,-0.784798,0.043443,0.202469,0.071483,1,1
3546,89,-0.626101,-0.036562,-0.060597,-0.104345,1,1
3527,89,-0.713805,0.068729,0.055358,0.068898,1,1
3538,89,-0.765320,-0.067203,0.072357,0.049000,1,1
3535,89,-0.736659,0.023556,0.122559,0.079795,1,1
3558,89,-0.727717,-0.031159,-0.089496,-0.040376,1,1
3551,89,-0.703169,-0.046712,-0.054797,-0.048648,1,1
3557,89,-0.686928,-0.052206,0.021389,-0.023334,1,1
3553,89,-0.681787,-0.019934,-0.083085,0.036706,1,1
3555,89,-0.660601,-0.086528,-0.065135,-0.036152,1,1
3550,89,-0.741392,0.019920,-0.035415,-0.052324,1,1
3536,89,-0.726005,-0.015355,0.070218,0.056485,1,1
3548,89,-0.705721,0.005415,-0.012167,-0.029059,1,1
3539,89,-0.831314,0.020294,0.127114,0.103198,1,0
3534,89,-0.747071,0.057799,0.159319,0.089800,1,1
3533,89,-0.744630,0.021724,0.148441,0.104857,1,1
3552,89,-0.722202,0.014395,-0.085861,-0.170875,1,1
3541,89,-0.654933,-0.057361,-0.032653,0.070359,1,1
3530,89,-0.750133,-0.036134,0.058818,0.074071,1,1
3524,89,-0.795212,0.018280,0.135057,0.130085,1,1
3542,89,-0.669610,-0.110856,-0.116233,-0.025610,1,1
3522,89,-0.755764,-0.049247,0.126974,0.041939,1,1
3549,89,-0.634086,0.000446,-0.160652,0.062928,1,1
3554,89,-0.715902,-0.081669,0.036612,-0.025080,1,1
3529,89,-0.789637,-0.042280,0.083322,0.167098,1,1
3532,89,-0.761062,-0.020818,0.086464,0.111832,1,1
3559,89,-0.667607,-0.079173,-0.011293,-0.011720,1,1
3523,89,-0.658184,-0.044958,0.159136,0.201820,1,1
3525,89,-0.748803,0.039742,0.097141,0.052311,1,1
3521,89,-0.776561,-0.028843,0.141191,0.047157,1,1
3556,89,-0.634676,-0.052058,-0.062996,-0.036593,1,1
3531,89,-0.812128,0.019767,0.109940,-0.004862,1,1
3537,89,-0.706258,0.001272,0.115230,0.116361,1,1
3544,89,-0.659185,-0.063368,-0.061888,0.010644,1,1
3540,89,-0.781513,0.081619,-0.023182,-0.029286,1,1
3545,89,-0.762073,-0.059662,-0.042963,-0.069079,1,1
3547,89,-0.640494,-0.009290,0.015935,-0.014288,1,1
3520,89,-0.796218,-0.013500,0.220008,0.110465,1,1
3543,89,-0.724748,-0.101098,-0.018316,-0.028316,1,1
3526,89,-0.740999,0.013376,0.089128,0.094982,1,1
3578,90,-0.759032,-0.038194,0.101757,0.066250,1,1
3566,90,-0.829408,0.007215,0.124820,0.131772,1,1
3586,90,-0.700888,-0.024242,-0.029478,0.004738,1,1
3562,90,-0.687544,0.040341,0.070344,0.050238,1,1
3561,90,-0.679319,0.031811,0.176009,0.018321,1,1
3582,90,-0.671221,-0.094295,-0.081044,-0.108658,1,1
3585,90,-0.706825,0.033162,-0.073701,-0.042251,1,1
3579,90,-0.834833,0.013776,0.058032,0.203578,1,0
3577,90,-0.714175,-0.068019,0.104137,0.058953,1,1
3597,90,-0.698202,-0.133388,-0.003024,-0.023966,1,1
3567,90,-0.743854,0.076958,0.158231,0.123737,1,1
3565,90,-0.755561,0.017058,0.069167,0.024273,1,1
3593,90,-0.596418,-0.083025,-0.025169,0.015761,0,1
3569,90,-0.812251,-0.002642,0.088814,0.075928,1,1
3572,90,-0.793740,-0.037490,0.056924,0.070232,1,1
3594,90,-0.727830,-0.076101,0.049945,0.002751,1,1
3570,90,-0.818008,0.082716,0.080763,0.134980,1,0
3598,90,-0.605129,-0.015060,0.002257,-0.082353,0,1
3589,90,-0.666306,-0.097127,-0.017001,0.029783,1,1
3563,90,-0.731699,0.056617,0.135798,0.073554,1,1
3599,90,-0.697264,-0.017937,-0.066183,-0.020469,1,1
3590,90,-0.719132,-0.063993,-0.066546,-0.034066,1,1
3584,90,-0.692534,-0.100697,-0.044534,-0.045463,1,1
3564,90,-0.751954,-0.035908,0.085144,0.074758,1,1
3587,90,-0.635054,-0.016124,-0.102704,-0.126831,1,1
3573,90,-0.731368,-0.003563,0.043999,0.109290,1,1
3580,90,-0.807979,-0.004876,-0.003545,-0.205498,1,1
3595,90,-0.752002,-0.095705,-0.059819,0.096514,1,1
3588,90,-0.650740,-0.099713,0.020583,-0.027325,1,1
3583,90,-0.672130,-0.123411,-0.036057,-0.070710,1,1
3574,90,-0.767438,-0.075830,0.098962,0.103251,1,1
3591,90,-0.710464,0.012545,-0.097141,-0.029057,1,1
3592,90,-0.728247,-0.123990,-0.034511,-0.038334,1,1
3571,90,-0.778290,-0.026238,0.115338,0.088356,1,1
3560,90,-0.821022,-0.016165,0.171855,0.075296,1,1
3568,90,-0.724994,0.012991,0.145922,0.058405,1,1
3596,90,-0.670384,-0.040373,-0.058486,-0.085178,1,1
3576,90,-0.789642,-0.023377,0.052679,0.081184,1,1
3575,90,-0.671864,-0.074687,0.103651,0.094550,1,1
3581,90,-0.754822,-0.054738,-0.033133,0.009429,1,1
3631,91,-0.743516,-0.118522,-0.180265,0.061557,1,1
3625,91,-0.713835,0.005859,0.002178,0.019323,1,1
3639,91,-0.714636,-0.059684,-0.078440,-0.080534,1,1
3627,91,-0.698948,-0.128210,-0.080993,-0.038882,1,1
3626,91,-0.707731,-0.029713,-0.124227,-0.014579,1,1
3629,91,-0.643408,-0.075104,0.079154,-0.030409,1,1
3635,91,-0.619897,-0.047105,-0.117242,-0.012317,1,1
3614,91,-0.800688,0.033766,0.117564,0.098975,1,1
3617,91,-0.727894,-0.107384,0.100754,0.063397,1,1
3604,91,-0.706415,0.015963,0.095294,0.054391,1,1
3607,91,-0.772221,-0.009606,0.164254,-0.041610,1,1
3618,91,-0.715950,-0.049927,0.022658,0.141825,1,1
3603,91,-0.772979,0.018477,0.156965,0.043121,1,1
3608,91,-0.786720,0.006404,0.190649,0.022490,1,1
3612,91,-0.799589,-0.024228,0.122435,0.146028,1,1
3637,91,-0.679076,-0.079098,-0.061180,-0.040922,1,1
3613,91,-0.739400,-0.012824,0.044067,0.123733,1,1
3600,91,-0.715350,0.012532,0.107533,0.231052,1,1
3628,91,-0.711748,-0.071378,0.004437,0.028479,1,1
3602,91,-0.753472,0.004456,0.091150,0.161001,1,1
3605,91,-0.727717,-0.081961,0.151486,0.106571,1,1
3619,91,-0.771190,-0.090799,0.081594,0.107600,1,1
3624,91,-0.627884,-0.018904,-0.094969,-0.060941,1,1
3620,91,-0.690123,-0.115344,0.088104,0.064377,1,1
3632,91,-0.649462,-0.006132,-0.011090,-0.095364,1,1
3609,91,-0.735671,0.021319,0.174151,0.128772,1,1
3638,91,-0.669242,-0.065583,-0.084996,-0.010938,1,1
3611,91,-0.745452,-0.030542,0.052052,0.154280,1,1
3623,91,-0.631443,-0.041689,0.023406,-0.006415,1,1
3610,91,-0.754542,-0.019250,0.135010,0.079354,1,1
3615,91,-0.773072,-0.041218,0.084018,0.210415,1,1
3601,91,-0.753405,0.048251,0.167336,0.119731,1,1
3606,91,-0.712818,-0.007002,-0.003149,0.068700,1,1
3621,91,-0.683922,-0.068738,0.021436,-0.002617,1,1
3630,91,-0.637046,-0.062663,-0.015541,0.006737,1,1
3622,91,-0.812360,0.043233,0.005874,-0.027578,1,1
3634,91,-0.603312,-0.022333,-0.067851,0.008411,0,1
3633,91,-0.611349,-0.006580,-0.093215,0.030368,1,1
3636,91,-0.704114,-0.059677,-0.013269,-0.065041,1,1
3616,91,-0.816964,-0.045998,0.077111,0.120298,1,1
3660,92,-0.738174,-0.058608,-0.049214,-0.091918,1,1
3655,92,-0.818120,-0.022480,0.152124,0.094019,1,1
3653,92,-0.673496,0.121395,0.113446,0.216720,1,0
3640,92,-0.666880,-0.035906,0.143809,0.052882,1,1
3678,92,-0.730884,-0.088440,0.005984,-0.019698,1,1
3647,92,-0.651513,-0.042897,0.090662,-0.022058,1,1
3672,92,-0.704229,-0.089828,-0.008422,-0.014242,1,1
3656,92,-0.675465,-0.065647,0.136693,0.042299,1,1
3657,92,-0.721340,0.003320,0.160140,0.076102,1,1
3644,92,-0.790033,0.010220,0.101783,0.124217,1,1
3665,92,-0.763739,0.051316,-0.024503,-0.012164,1,1
3679,92,-0.650600,-0.007084,0.047941,-0.156962,1,1
3677,92,-0.632440,-0.088847,0.015786,-0.070258,1,1
3646,92,-0.784487,0.088023,0.056228,0.145157,1,0
3662,92,-0.750954,-0.012048,0.053310,0.000803,1,1
3645,92,-0.668278,-0.031536,0.128511,-0.028837,1,1
3661,92,-0.638118,-0.092063,-0.009943,-0.135064,1,1
3664,92,-0.604936,-0.005915,0.027467,-0.028116,1,1
3675,92,-0.678938,-0.092716,-0.184363,-0.008521,1,1
3666,92,-0.652688,-0.023702,-0.095334,-0.037008,1,1
3643,92,-0.811645,-0.013269,-0.014101,0.158810,1,1
3673,92,-0.724451,-0.025698,-0.040671,-0.028041,1,1
3658,92,-0.776253,-0.041533,0.102406,0.179197,1,1
3671,92,-0.746231,-0.089627,0.036955,0.055178,1,1
3674,92,-0.749201,-0.088443,0.040354,-0.050762,1,1
3668,92,-0.757951,-0.008655,-0.084710,-0.068326,1,1
3652,92,-0.762193,-0.014170,0.100042,0.031655,1,1
3659,92,-0.682988,-0.070463,0.117459,0.135182,1,1
3670,92,-0.687604,-0.014823,-0.020269,-0.074276,1,1
3663,92,-0.844017,-0.092536,0.032693,-0.049913,1,1
3642,92,-0.756969,-0.108213,0.178149,0.088314,1,1
3650,92,-0.796738,-0.013985,0.081821,0.073291,1,1
3651,92,-0.771456,-0.000985,0.107796,0.132302,1,1
3648,92,-0.803235,-0.015935,0.191210,0.034064,1,1
3654,92,-0.798769,-0.034177,0.123945,0.158210,1,1
3669,92,-0.700935,-0.003946,-0.034435,-0.118653,1,1
3676,92,-0.619067,-0.013225,0.017909,-0.065322,1,1
3667,92,-0.749948,-0.088963,-0.007840,0.037185,1,1
3649,92,-0.747798,-0.130580,0.082292,0.055053,1,1
3641,92,-0.760256,0.051934,0.091828,0.126145,1,1
3700,93,-0.694821,0.011930,0.026360,-0.046374,1,1
3709,93,-0.684325,-0.002747,0.073195,-0.086910,1,1
3690,93,-0.708541,-0.030221,0.062988,0.072203,1,1
3704,93,-0.739218,-0.051557,-0.022424,-0.003283,1,1
3693,93,-0.813749,0.043710,0.140364,0.077947,1,0
3714,93,-0.631907,-0.025231,-0.015208,0.033811,1,1
3685,93,-0.724849,-0.074573,0.117227,0.076726,1,1
3706,93,-0.774148,0.029294,-0.014480,-0.007367,1,1
3719,93,-0.630784,0.033540,-0.110817,0.014285,1,1
3715,93,-0.767085,-0.126587,-0.057627,-0.029204,1,1
3699,93,-0.799727,-0.098596,0.071847,0.075638,1,1
3711,93,-0.677985,-0.057347,-0.066727,0.004444,1,1
3718,93,-0.633052,-0.000003,-0.062773,-0.022808,1,1
3692,93,-0.736440,0.068497,0.058193,0.168077,1,1
3710,93,-0.697010,-0.073806,-0.161518,-0.110297,1,1
3686,93,-0.723868,-0.016567,0.110700,0.054539,1,1
3682,93,-0.811574,-0.058777,0.097026,0.018343,1,1
3697,93,-0.774135,0.035849,0.024666,0.120933,1,1
3694,93,-0.817619,-0.155520,0.120113,0.100317,1,0
3683,93,-0.765356,-0.052436,0.119071,0.150214,1,1
3691,93,-0.785274,-0.019863,0.153587,0.178211,1,1
3681,93,-0.768688,0.038899,0.043049,0.094668,1,1
3712,93,-0.740376,-0.154343,-0.072634,0.011616,0,1
3705,93,-0.765148,-0.111410,-0.050741,-0.085065,1,1
3717,93,-0.627614,-0.015689,-0.047708,0.048422,1,1
3684,93,-0.723067,-0.005062,0.239229,0.030258,1,1
3702,93,-0.707494,-0.035909,-0.009862,-0.035179,1,1
3696,93,-0.727090,0.046341,0.112192,0.066164,1,1
3703,93,-0.773422,0.017278,-0.052110,0.052646,1,1
3695,93,-0.811674,0.020961,0.106123,0.070400,1,1
3687,93,-0.789041,-0.022587,0.158186,0.010276,1,1
3701,93,-0.678697,-0.110817,0.051637,-0.064343,1,1
3680,93,-0.726447,0.017840,0.109313,0.036607,1,1
3716,93,-0.696255,0.058848,-0.118734,-0.081972,1,1
3713,93,-0.703415,-0.083656,0.011103,-0.066175,1,1
3689,93,-0.789426,-0.040992,0.095506,0.150802,1,1
3688,93,-0.736077,-0.054264,0.164873,0.102566,1,1
3707,93,-0.676560,0.011177,-0.017493,-0.008219,1,1
3708,93,-0.776669,-0.086066,-0.053275,-0.013887,1,1
3698,93,-0.813557,-0.094327,0.060690,0.083436,1,1
3728,94,-0.748977,-0.051623,0.061897,0.157843,1,1
3737,94,-0.749693,0.026280,0.059122,0.099177,1,1
3730,94,-0.800163,-0.027122,0.271314,0.151052,1,1
3758,94,-0.708293,-0.058637,-0.087917,0.064647,1,1
3744,94,-0.719754,0.049490,-0.018399,-0.018730,1,1
3738,94,-0.706281,-0.017718,0.169907,0.099473,1,1
3740,94,-0.728232,-0.032823,-0.094684,-0.054296,1,1
3722,94,-0.810626,-0.010682,0.167026,0.023867,1,1
3743,94,-0.613250,-0.129284,-0.032319,-0.013132,0,1
3752,94,-0.666701,-0.032523,-0.055874,-0.062260,1,1
3742,94,-0.742687,-0.009969,-0.010379,-0.019128,1,1
3734,94,-0.811394,-0.020912,0.124930,0.101943,1,1
3723,94,-0.762136,-0.017134,0.119861,0.071851,1,1
3733,94,-0.818658,-0.020438,0.185429,0.102596,1,1
3751,94,-0.668277,-0.067455,-0.037651,-0.051716,1,1
3756,94,-0.680802,-0.040135,0.001054,-0.070253,1,1
3727,94,-0.763424,0.045178,0.083557,0.017960,1,1
3739,94,-0.825565,0.068132,0.136636,0.053758,1,0
3748,94,-0.642438,0.004918,-0.084941,-0.046869,1,1
3747,94,-0.685203,-0.005617,-0.006271,-0.093647,1,1
3749,94,-0.642169,-0.090265,-0.107226,-0.107610,1,1
3754,94,-0.652427,-0.089355,-0.023117,0.000360,1,1
3725,94,-0.743360,-0.043907,0.051788,0.082583,1,1
3726,94,-0.796658,0.060548,0.086385,0.101766,1,0
3757,94,-0.739408,-0.111004,-0.001742,-0.001555,1,1
3750,94,-0.690099,-0.057915,-0.117542,-0.135536,1,1
3721,94,-0.756999,-0.001731,0.151939,0.047204,1,1
3746,94,-0.670080,-0.127779,-0.027014,-0.010807,0,1
3732,94,-0.817697,0.036736,0.128167,0.019023,1,0
3720,94,-0.684596,0.015512,0.053611,0.064134,1,1
3735,94,-0.758863,-0.146537,0.089198,0.080471,1,1
3745,94,-0.668285,-0.015120,-0.007883,-0.099402,1,1
3729,94,-0.777578,0.040784,0.043989,0.139975,1,1
3759,94,-0.680848,0.016807,0.002931,0.034062,1,1
3724,94,-0.757766,-0.115200,0.111975,0.099183,1,1
3753,94,-0.759760,-0.015954,-0.002870,-0.017048,1,1
3755,94,-0.687539,-0.082844,0.041755,0.044188,1,1
3741,94,-0.713929,-0.054658,-0.046980,-0.091937,1,1
3731,94,-0.686122,0.012905,0.147642,0.056283,1,1
3736,94,-0.809174,0.027531,0.104541,0.039837,1,1
3772,95,-0.809571,-0.049959,0.118245,0.068206,1,1
3794,95,-0.723058,-0.069628,-0.084661,-0.043820,1,1
3765,95,-0.683712,-0.099353,0.186246,0.155587,1,1
3763,95,-0.729163,0.032882,0.095661,0.052351,1,1
3777,95,-0.831709,0.091648,0.099700,0.040920,1,0
3778,95,-0.657933,0.056169,0.060777,0.101847,1,1
3795,95,-0.671988,0.020205,-0.122376,0.003118,1,1
3767,95,-0.747815,-0.004650,0.076641,0.068902,1,1
3766,95,-0.808829,0.038005,0.072911,0.109756,1,0
3781,95,-0.687047,-0.078470,-0.016086,-0.008862,1,1
3780,95,-0.645380,-0.033348,-0.019546,-0.040698,1,1
3791,95,-0.676087,-0.023604,-0.019818,-0.075129,1,1
3790,95,-0.630805,-0.086341,-0.144885,-0.018234,1,1
3799,95,-0.759498,-0.046079,-0.090266,-0.133563,1,1
3760,95,-0.792581,-0.009574,0.116054,0.088634,1,1
3773,95,-0.837123,0.043151,0.071982,0.077636,1,0
3770,95,-0.725779,-0.000654,0.071823,-0.015375,1,1
3788,95,-0.707517,-0.030924,-0.072649,-0.045463,1,1
3761,95,-0.705810,0.032146,0.174831,0.081622,1,1
3783,95,-0.638767,-0.135787,0.051513,-0.019075,0,1
3796,95,-0.648279,-0.098297,-0.010674,-0.001168,1,1
3769,95,-0.723380,-0.049783,0.090575,0.042377,1,1
3792,95,-0.655789,-0.079066,-0.043648,0.003485,1,1
3768,95,-0.713021,0.009071,0.161965,0.054971,1,1
3771,95,-0.750461,-0.044388,0.131310,0.101148,1,1
3797,95,-0.676002,-0.110881,-0.045266,-0.051223,1,1
3779,95,-0.676540,-0.053517,0.053509,0.094896,1,1
3785,95,-0.679009,0.002063,-0.053257,-0.041103,1,1
3776,95,-0.795789,-0.035202,0.103687,0.040572,1,1
3775,95,-0.790038,-0.003433,0.118865,0.052109,1,1
3784,95,-0.682050,-0.067350,-0.068884,-0.062357,1,1
3789,95,-0.707013,-0.020047,-0.045300,-0.086581,1,1
3793,95,-0.675993,-0.104357,-0.049794,-0.025773,1,1
3782,95,-0.700724,-0.075095,-0.015016,-0.037783,1,1
3787,95,-0.803857,-0.091366,-0.075821,-0.075345,1,1
3786,95,-0.589259,-0.015489,0.004693,0.069620,0,1
3798,95,-0.670353,-0.020077,-0.082728,-0.056464,1,1
3764,95,-0.728383,0.128648,0.097643,0.073907,1,0
3774,95,-0.746872,0.083329,0.145662,-0.016881,1,1
3762,95,-0.741279,-0.086620,0.088684,0.120431,1,1
3804,96,-0.725485,-0.022582,0.047653,0.105748,1,1
3830,96,-0.709996,-0.017069,-0.092370,0.035775,1,1
3815,96,-0.719951,-0.009357,0.136951,0.082031,1,1
3807,96,-0.698452,0.059860,0.089279,0.149018,1,1
3829,96,-0.692460,-0.155654,-0.035912,0.079577,0,1
3819,96,-0.776287,-0.026009,0.140242,0.087094,1,1
3820,96,-0.597888,-0.114025,0.071194,-0.045583,0,1
3818,96,-0.768019,-0.048762,0.124491,0.127510,1,1
3822,96,-0.611007,-0.024163,-0.014933,-0.005450,1,1
3835,96,-0.633505,0.000673,-0.001282,-0.046868,1,1
3801,96,-0.665904,-0.006327,0.092268,0.036746,1,1
3823,96,-0.646696,-0.105968,-0.053045,0.044614,1,1
3836,96,-0.699841,-0.070953,-0.029888,-0.067356,1,1
3808,96,-0.806267,-0.027840,0.070458,0.086597,1,1
3827,96,-0.714883,-0.036166,-0.037129,0.019150,1,1
3834,96,-0.609580,-0.111608,-0.062884,-0.022451,0,1
3814,96,-0.769437,0.068450,0.266298,0.179830,1,1
3811,96,-0.754874,0.013581,0.135695,0.090961,1,1
3806,96,-0.711658,0.016427,0.070538,0.113515,1,1
3803,96,-0.743763,0.059346,0.126710,0.099756,1,1
3839,96,-0.594684,-0.026989,-0.087658,-0.043921,0,1
3838,96,-0.725156,-0.057674,-0.036634,0.018446,1,1
3813,96,-0.774176,0.018217,0.095560,0.052972,1,1
3800,96,-0.707111,0.028495,0.115239,0.149799,1,1
3825,96,-0.649756,-0.046464,-0.059579,0.007947,1,1
3824,96,-0.645616,-0.099261,-0.070606,-0.034376,1,1
3817,96,-0.740019,0.015914,0.070949,0.073945,1,1
3816,96,-0.715254,0.008604,0.119170,0.141079,1,1
3805,96,-0.820678,-0.059046,0.114135,0.062190,1,1
3821,96,-0.722241,-0.043216,-0.063853,-0.016966,1,1
3828,96,-0.743839,-0.031770,-0.000527,0.009297,1,1
3831,96,-0.720534,-0.009283,-0.101139,-0.054336,1,1
3837,96,-0.671689,-0.031299,-0.136386,-0.024912,1,1
3832,96,-0.689874,-0.020372,-0.135769,-0.015052,1,1
3826,96,-0.613540,0.012945,-0.093540,-0.091088,1,1
3810,96,-0.807969,0.004270,0.149107,0.111322,1,1
3802,96,-0.796584,-0.077959,0.174990,0.006601,1,1
3809,96,-0.743765,0.002066,0.097636,0.123784,1,1
3833,96,-0.566063,0.004675,-0.095269,-0.012740,0,1
3812,96,-0.786290,0.057489,0.045523,0.048906,1,1
3873,97,-0.701385,0.039540,-0.028582,0.010405,1,1
3848,97,-0.734831,0.082554,0.054857,0.030373,1,1
3878,97,-0.650266,-0.076485,0.021323,-0.012553,1,1
3864,97,-0.685123,-0.002574,0.045779,-0.037600,1,1
3843,97,-0.806649,0.033514,0.138777,0.060667,1,1
3871,97,-0.673688,0.001700,-0.111542,-0.003594,1,1
3844,97,-0.753974,-0.035283,-0.000139,0.068999,1,1
3845,97,-0.729424,-0.071120,0.068054,0.118569,1,1
3877,97,-0.673205,-0.060727,0.055075,0.015474,1,1
3842,97,-0.722565,0.030866,0.207846,0.068571,1,1
3879,97,-0.803475,-0.111973,-0.041773,-0.142017,1,1
3847,97,-0.762180,0.039006,0.071050,0.125180,1,1
3872,97,-0.599092,-0.059312,-0.025794,-0.118949,0,1
3853,97,-0.795855,-0.055872,0.125992,0.003894,1,1
3861,97,-0.691783,-0.059964,-0.036368,-0.135708,1,1
3850,97,-0.757217,-0.083517,0.088933,0.103448,1,1
3866,97,-0.751770,-0.078142,-0.021643,-0.064603,1,1
3869,97,-0.702090,-0.139088,0.055668,-0.051455,1,1
3840,97,-0.761773,-0.070250,0.143865,0.085088,1,1
3870,97,-0.768657,-0.013095,-0.006099,-0.018851,1,1
3857,97,-0.711403,-0.091512,0.091557,0.018732,1,1
3863,97,-0.686690,-0.031476,-0.128348,-0.012902,1,1
3860,97,-0.643185,-0.068432,-0.039157,-0.131089,1,1
3846,97,-0.742587,0.004102,0.001098,0.107112,1,1
3868,97,-0.710207,-0.074148,0.005462,0.017077,1,1
3867,97,-0.705378,-0.069665,0.073716,-0.019583,1,1
3855,97,-0.647265,0.090158,0.085447,-0.020042,1,1
3851,97,-0.686707,0.025670,0.164634,0.043384,1,1
3876,97,-0.663927,0.001199,-0.030706,0.065226,1,1
3875,97,-0.630218,-0.127965,-0.122744,0.087718,0,1
3874,97,-0.724599,0.026683,-0.106362,-0.039733,1,1
3841,97,-0.722508,0.001770,0.061008,0.038225,1,1
3849,97,-0.672502,0.016269,0.090631,0.021955,1,1
3852,97,-0.807617,0.002144,0.154608,0.088965,1,1
3862,97,-0.691695,-0.113579,0.010386,-0.058322,1,1
3854,97,-0.808933,0.009835,0.186293,0.077648,1,1
3858,97,-0.774334,-0.065829,0.059609,0.106760,1,1
3856,97,-0.767443,-0.007972,0.144050,0.066204,1,1
3865,97,-0.774218,-0.037560,-0.003498,-0.022066,1,1
3859,97,-0.747290,0.012552,0.119304,0.099172,1,1
3885,98,-0.754965,-0.003390,0.181754,0.018984,1,1
3896,98,-0.709994,-0.112460,0.132542,0.076810,1,1
3890,98,-0.728187,-0.115865,0.085681,0.084949,1,1
3888,98,-0.758053,0.026833,0.085207,0.033167,1,1
3904,98,-0.772877,0.052027,-0.036662,0.023105,1,1
3899,98,-0.756871,-0.040927,0.124125,0.123270,1,1
3893,98,-0.773917,0.062695,0.201302,0.050772,1,1
3918,98,-0.663753,-0.046360,0.035755,-0.044736,1,1
3906,98,-0.710915,-0.101316,-0.026872,0.004869,1,1
3891,98,-0.736108,-0.034225,0.076600,0.060080,1,1
3910,98,-0.734760,-0.066381,-0.065930,-0.013091,1,1
3919,98,-0.774634,-0.061955,-0.050037,-0.024589,1,1
3907,98,-0.651803,-0.074353,-0.011115,-0.006845,1,1
3881,98,-0.759020,0.024874,0.073015,0.008790,1,1
3883,98,-0.711553,-0.017406,0.061693,0.092614,1,1
3900,98,-0.759757,-0.056801,-0.052715,-0.008488,1,1
3902,98,-0.699016,-0.072132,-0.003238,0.037483,1,1
3903,98,-0.649522,-0.033314,-0.044974,0.001700,1,1
3894,98,-0.747338,-0.013143,0.059506,0.075919,1,1
3887,98,-0.684931,-0.024170,0.046462,0.064274,1,1
3901,98,-0.628140,-0.074544,-0.058918,-0.083626,1,1
3892,98,-0.713432,0.008858,0.044722,0.110531,1,1
3914,98,-0.688250,-0.053154,-0.050529,-0.049945,1,1
3898,98,-0.740200,-0.006367,0.097229,0.027764,1,1
3895,98,-0.863015,0.005460,0.157189,0.042284,1,0
3880,98,-0.739091,-0.111202,0.150886,0.173298,1,1
3912,98,-0.669524,-0.037979,-0.183680,-0.056116,1,1
3916,98,-0.719369,-0.068896,0.009660,-0.074422,1,1
3897,98,-0.774117,-0.085652,0.088763,0.085159,1,1
3909,98,-0.625375,-0.058274,0.006822,-0.098266,1,1
3886,98,-0.723995,0.026142,0.018587,0.179321,1,1
3905,98,-0.643988,-0.120683,-0.119313,0.005968,0,1
3884,98,-0.788480,-0.048571,0.157806,0.158331,1,1
3908,98,-0.695675,-0.031573,-0.071183,-0.047031,1,1
3889,98,-0.686283,-0.006375,0.010847,0.060246,1,1
3913,98,-0.681112,0.007189,-0.029709,0.002281,1,1
3917,98,-0.693721,-0.047683,0.051933,-0.022538,1,1
3911,98,-0.705582,-0.049414,-0.048122,-0.013973,1,1
3882,98,-0.798387,-0.071688,0.107407,0.147002,1,1
3915,98,-0.780965,-0.115728,-0.051373,-0.144941,1,1
3957,99,-0.677204,-0.071522,0.023008,-0.045308,1,1
3954,99,-0.613835,-0.048525,-0.039288,0.054010,1,1
3940,99,-0.629811,-0.148674,-0.093272,0.007384,0,1
3929,99,-0.753811,-0.059099,0.203606,0.019931,1,1
3935,99,-0.747900,0.017542,0.100753,0.003267,1,1
3939,99,-0.692943,0.051480,-0.020539,0.025858,1,1
3926,99,-0.783543,0.043384,0.177537,0.046906,1,1
3942,99,-0.692346,-0.007462,-0.046792,-0.092444,1,1
3947,99,-0.722289,-0.043705,0.036606,-0.084434,1,1
3959,99,-0.711124,-0.056796,-0.050304,-0.041629,1,1
3936,99,-0.727662,-0.017936,0.159172,0.102252,1,1
3921,99,-0.726987,-0.039988,-0.004601,0.125648,1,1
3944,99,-0.700146,-0.061048,-0.012497,-0.028995,1,1
3930,99,-0.744753,-0.012442,0.084693,0.092249,1,1
3938,99,-0.824208,-0.027683,0.100352,0.056906,1,1
3932,99,-0.717538,-0.014892,0.073511,0.072074,1,1
3928,99,-0.668901,0.004667,0.151994,-0.051210,1,1
3933,99,-0.765814,-0.015561,0.014755,-0.002192,1,1
3943,99,-0.602735,0.022442,-0.042815,-0.041560,1,1
3920,99,-0.784915,-0.042612,0.133000,0.075701,1,1
3948,99,-0.746650,-0.240426,-0.037723,0.010266,0,1
3945,99,-0.647616,-0.042506,-0.081100,-0.039108,1,1
3949,99,-0.615702,0.002473,-0.050522,-0.001547,1,1
3925,99,-0.782597,0.015661,0.196923,0.096688,1,1
3941,99,-0.726256,-0.019273,0.029195,0.012650,1,1
3951,99,-0.657977,-0.041641,-0.025328,-0.054825,1,1
3922,99,-0.672657,-0.007140,0.209755,0.124529,1,1
3946,99,-0.631704,-0.093974,-0.027513,-0.150794,1,1
3955,99,-0.713357,0.049709,-0.020948,0.009918,1,1
3927,99,-0.760833,-0.030182,-0.005941,-0.013438,1,1
3950,99,-0.626486,0.000342,-0.030421,-0.034173,1,1
3952,99,-0.682631,-0.077767,0.023534,-0.047970,1,1
3953,99,-0.700308,-0.061967,-0.018332,-0.013306,1,1
3937,99,-0.718688,-0.014317,0.132244,0.213137,1,1
3958,99,-0.658716,0.024434,0.045960,-0.055237,1,1
3931,99,-0.803200,-0.029326,0.114704,0.028611,1,1
3924,99,-0.748485,-0.005768,0.066380,0.077667,1,1
3956,99,-0.725007,-0.005560,-0.065249,-0.018886,1,1
3934,99,-0.651513,-0.016824,0.108711,0.115089,1,1
3923,99,-0.722043,-0.060819,0.165166,0.172033,1,1
3989,100,-0.580391,-0.080561,0.013193,0.098690,0,1
3998,100,-0.747808,0.073559,-0.030259,0.004512,1,1
3965,100,-0.659342,0.028523,0.144021,0.098970,1,1
3961,100,-0.798866,-0.016573,0.057808,0.071056,1,1
3975,100,-0.792326,0.018287,0.075991,0.106586,1,1
3997,100,-0.738930,-0.074911,-0.033193,-0.031713,1,1
3983,100,-0.794776,-0.000604,-0.011503,0.000656,1,1
3978,100,-0.799612,-0.104465,0.120301,0.106630,1,1
3986,100,-0.672372,-0.133554,-0.084916,-0.048733,0,1
3991,100,-0.621908,-0.022424,-0.034051,0.012247,1,1
3967,100,-0.745799,0.004301,0.176908,0.059166,1,1
3979,100,-0.731782,-0.007592,0.071324,0.029160,1,1
3994,100,-0.692701,-0.008254,-0.009348,-0.040132,1,1
3993,100,-0.729630,0.073560,-0.033650,-0.017183,1,1
3974,100,-0.759962,0.080376,0.121788,0.068578,1,1
3971,100,-0.712430,-0.038478,0.054549,0.086760,1,1
3977,100,-0.734926,-0.067095,0.144715,0.070005,1,1
3973,100,-0.779545,-0.027533,0.061966,0.059642,1,1
3980,100,-0.700551,-0.033665,0.013303,-0.074423,1,1
3962,100,-0.804831,0.030178,0.158864,0.078143,1,1
3969,100,-0.780688,0.087774,0.157696,0.185563,1,0
3996,100,-0.752823,0.004461,-0.021536,0.006528,1,1
3976,100,-0.782491,-0.068457,0.162409,0.062899,1,1
3964,100,-0.739985,-0.034140,0.124169,-0.023859,1,1
3984,100,-0.668463,-0.107519,-0.069320,0.042027,1,1
3966,100,-0.778047,0.019459,0.080870,0.047735,1,1
3985,100,-0.596161,-0.012672,-0.066773,-0.107610,0,1
3972,100,-0.710691,0.012117,0.122632,0.130130,1,1
3982,100,-0.667757,-0.185446,-0.064810,-0.029243,0,1
3990,100,-0.677835,-0.135601,0.051514,0.055114,0,1
3988,100,-0.722937,-0.078580,-0.028042,0.008204,1,1
3999,100,-0.795094,-0.029559,-0.037718,-0.052881,1,1
3963,100,-0.677165,-0.012620,0.081201,0.042172,1,1
3960,100,-0.787887,0.049868,0.068682,0.104632,1,1
3981,100,-0.717188,0.007195,-0.171607,-0.039770,1,1
3992,100,-0.728199,-0.008372,-0.051317,-0.107008,1,1
3987,100,-0.621534,-0.059829,-0.008695,-0.044196,1,1
3995,100,-0.643526,-0.082814,-0.000822,-0.100413,1,1
3970,100,-0.800876,-0.023034,0.097665,0.049155,1,1
3968,100,-0.733966,-0.014746,0.045660,0.120719,1,1