@relation stream_gen

@attribute global_id NUMERIC
@attribute timestamp NUMERIC
@attribute f1 NUMERIC
@attribute f2 NUMERIC
@attribute f3 NUMERIC
@attribute f4 NUMERIC
@attribute f5 NUMERIC
@attribute class_0 {0,1}
@attribute class_1 {0,1}

@data
4,1,-0.364184,-0.006294,-0.213253,-0.187619,-0.121570,1,1
8,1,-0.376635,0.097665,-0.098655,-0.143779,-0.061429,1,1
27,1,-0.340976,0.010773,-0.226603,-0.270876,-0.259562,1,1
34,1,-0.378061,-0.051038,-0.260940,-0.145680,-0.213941,1,1
20,1,-0.339886,-0.084047,-0.147173,-0.108406,-0.288689,0,1
14,1,-0.342484,-0.007033,-0.134193,-0.164530,-0.153920,1,1
7,1,-0.405111,0.118532,-0.270380,-0.110761,-0.114691,1,1
26,1,-0.476643,0.033332,-0.216120,-0.224899,-0.158903,1,1
5,1,-0.423075,0.004917,-0.151039,-0.194101,-0.034928,1,1
17,1,-0.409750,0.070733,-0.128400,-0.072337,-0.117470,1,1
16,1,-0.414226,0.083455,-0.203881,-0.163964,-0.098062,1,1
29,1,-0.475814,-0.061831,-0.309495,-0.173608,-0.160226,1,1
38,1,-0.367444,-0.127238,-0.193931,-0.140412,-0.177463,0,1
11,1,-0.398389,-0.040973,-0.187305,-0.211550,-0.163435,1,1
22,1,-0.343377,-0.002340,-0.140337,-0.178161,-0.306013,1,1
13,1,-0.446769,-0.068004,-0.154416,-0.196342,-0.070234,1,1
9,1,-0.364731,0.050589,-0.183906,-0.190479,-0.135147,1,1
36,1,-0.410635,-0.051998,-0.235471,-0.152176,-0.215387,1,1
24,1,-0.418864,-0.118313,-0.267615,-0.292123,-0.140352,0,1
19,1,-0.427646,0.098606,-0.206515,-0.144051,-0.167748,1,1
28,1,-0.398288,-0.063291,-0.183964,-0.291956,-0.177064,1,1
18,1,-0.314417,0.169360,-0.214376,-0.072830,-0.042011,1,0
6,1,-0.443821,0.027185,-0.194291,-0.230224,-0.127130,1,1
2,1,-0.413136,0.064653,-0.225820,-0.096617,-0.161119,1,1
30,1,-0.333746,-0.033480,-0.190184,-0.217540,-0.117100,1,1
25,1,-0.420550,0.022968,-0.243752,-0.168909,-0.234990,1,1
37,1,-0.376391,-0.048837,-0.193906,-0.139574,-0.181902,1,1
1,1,-0.469517,0.120717,-0.187339,-0.164130,-0.142621,1,0
39,1,-0.482252,0.058968,-0.179626,-0.197867,-0.151582,1,1
35,1,-0.397496,0.056749,-0.249033,-0.217013,-0.172636,1,1
3,1,-0.410558,0.134160,-0.114729,-0.183420,-0.189592,1,0
32,1,-0.441279,0.019858,-0.280543,-0.161339,-0.242781,1,1
33,1,-0.390593,-0.012859,-0.172557,-0.206972,-0.142756,1,1
23,1,-0.372580,0.001454,-0.180015,-0.248516,-0.214362,1,1
21,1,-0.396430,0.017466,-0.301426,-0.231315,-0.092121,1,1
15,1,-0.477784,0.038844,-0.208379,-0.057107,-0.134165,1,1
12,1,-0.421365,0.028202,-0.160636,-0.164418,-0.085658,1,1
10,1,-0.457228,-0.033133,-0.204717,-0.180216,-0.039824,1,1
0,1,-0.402800,0.065259,-0.123171,-0.200224,-0.152005,1,1
31,1,-0.395947,-0.076193,-0.156385,-0.253446,-0.209792,1,1
64,2,-0.388204,-0.055821,-0.180180,-0.120736,-0.192875,1,1
77,2,-0.433825,0.016758,-0.162535,-0.172843,-0.206961,1,1
55,2,-0.264020,0.053051,-0.228989,-0.105652,-0.115043,1,0
73,2,-0.360050,-0.073916,-0.191766,-0.240514,-0.199809,1,1
48,2,-0.422489,0.130750,-0.217777,-0.202607,-0.114530,1,0
52,2,-0.361517,0.071055,-0.154059,-0.141996,-0.202131,1,1
62,2,-0.446388,-0.080436,-0.250333,-0.154899,-0.167193,0,1
63,2,-0.381252,0.011033,-0.212161,-0.148880,-0.175481,1,1
47,2,-0.464250,0.073914,-0.125333,-0.182734,-0.148746,1,1
70,2,-0.430882,-0.093473,-0.212314,-0.146671,-0.070059,0,1
41,2,-0.414367,0.082360,-0.184469,-0.125136,-0.107223,1,1
71,2,-0.370550,0.011501,-0.210166,-0.198908,-0.152055,1,1
58,2,-0.276169,0.073789,-0.192336,-0.196939,-0.074601,1,0
49,2,-0.355147,0.113711,-0.199201,-0.183186,-0.096173,1,0
57,2,-0.406276,0.062905,-0.260522,-0.155357,-0.055828,1,1
66,2,-0.435321,-0.124789,-0.280439,-0.167063,-0.135836,0,1
53,2,-0.428279,0.134530,-0.164854,-0.120106,-0.100229,1,0
72,2,-0.409141,-0.055057,-0.267924,-0.171202,-0.223880,1,1
40,2,-0.455298,0.113962,-0.207560,-0.124598,-0.165289,1,0
51,2,-0.482311,0.007191,-0.116879,-0.219190,-0.142397,1,1
79,2,-0.409048,-0.050281,-0.175546,-0.128469,-0.124105,1,1
59,2,-0.418517,0.114472,-0.180720,-0.250989,-0.108614,1,1
43,2,-0.428572,0.024217,-0.171563,-0.164653,-0.107684,1,1
61,2,-0.392507,-0.065918,-0.162822,-0.133409,-0.275642,1,1
50,2,-0.372193,0.062428,-0.117916,-0.201054,-0.128103,1,1
46,2,-0.370458,0.061810,-0.166793,-0.115417,-0.152437,1,1
60,2,-0.405459,-0.006563,-0.265345,-0.235215,-0.168945,1,1
76,2,-0.430582,-0.080705,-0.137693,-0.191025,-0.175965,1,1
56,2,-0.372174,0.051311,-0.219129,-0.230857,-0.162875,1,1
42,2,-0.442777,0.108608,-0.254113,-0.121635,0.009612,1,1
75,2,-0.413298,0.053887,-0.126832,-0.163201,-0.134451,1,1
45,2,-0.475435,0.128064,-0.096508,-0.204588,-0.105220,1,0
69,2,-0.385861,-0.023075,-0.242980,-0.214759,-0.153270,1,1
65,2,-0.504503,0.042928,-0.212286,-0.141316,-0.168959,1,1
54,2,-0.411963,0.064029,-0.210727,-0.050501,-0.133785,1,1
44,2,-0.446026,0.022768,-0.116008,-0.043492,-0.080150,1,1
68,2,-0.341708,-0.090099,-0.158001,-0.256819,-0.064075,0,1
74,2,-0.405303,0.062667,-0.285463,-0.210351,-0.114423,1,1
78,2,-0.399858,-0.038733,-0.291675,-0.241631,-0.142448,1,1
67,2,-0.452492,-0.046194,-0.204080,-0.296032,-0.137679,1,1
90,3,-0.467124,0.032033,-0.167062,-0.220838,-0.057571,1,1
116,3,-0.531977,-0.024553,-0.218300,-0.164358,-0.188602,0,1
92,3,-0.446324,0.108644,-0.125545,-0.138577,-0.047246,1,1
111,3,-0.461632,-0.027155,-0.224285,-0.262318,-0.146698,1,1
114,3,-0.394306,-0.139482,-0.143773,-0.150363,-0.215531,0,1
91,3,-0.302448,0.084807,-0.211423,-0.142859,-0.158362,1,1
110,3,-0.399123,0.004987,-0.212220,-0.214577,-0.166241,1,1
98,3,-0.382404,0.142252,-0.226125,-0.151658,-0.048350,1,0
94,3,-0.381356,0.046555,-0.189534,-0.135561,-0.144166,1,1
87,3,-0.449388,-0.003984,-0.196511,-0.120774,-0.169339,1,1
103,3,-0.278541,-0.023230,-0.251720,-0.149928,-0.244195,1,1
118,3,-0.353985,-0.070788,-0.209548,-0.196166,-0.261220,1,1
106,3,-0.375399,-0.071197,-0.228699,-0.102262,-0.125708,1,1
115,3,-0.426209,-0.008933,-0.180393,-0.197406,-0.199452,1,1
119,3,-0.289891,-0.053602,-0.260193,-0.246901,-0.196132,0,1
81,3,-0.486274,0.014864,-0.236393,-0.150579,-0.251897,1,1
84,3,-0.459291,0.059397,-0.140939,-0.162674,-0.137630,1,1
104,3,-0.361760,-0.112589,-0.230599,-0.182703,-0.161261,0,1
86,3,-0.434338,0.084690,-0.160227,-0.110061,-0.168415,1,1
105,3,-0.403274,-0.115797,-0.192994,-0.165652,-0.194615,0,1
89,3,-0.427985,0.040099,-0.081113,-0.264443,-0.061259,1,1
102,3,-0.359645,-0.024850,-0.201007,-0.148161,-0.143936,1,1
107,3,-0.344720,-0.010184,-0.160031,-0.180161,-0.124252,1,1
108,3,-0.406386,-0.076739,-0.260235,-0.193852,-0.186830,1,1
113,3,-0.413828,-0.002679,-0.225891,-0.163056,-0.170938,1,1
83,3,-0.357164,-0.014854,-0.140851,-0.135794,-0.173156,1,1
109,3,-0.370765,-0.046769,-0.184521,-0.199427,-0.116996,1,1
88,3,-0.438222,0.082017,-0.113556,-0.067220,-0.145836,1,1
101,3,-0.529234,-0.002022,-0.194511,-0.223097,-0.189343,1,1
117,3,-0.409825,-0.049252,-0.182746,-0.171496,-0.172011,1,1
82,3,-0.330092,0.117619,-0.133078,-0.133468,-0.140932,1,0
112,3,-0.336513,0.006105,-0.322998,-0.232253,-0.210252,1,1
100,3,-0.471934,-0.021811,-0.247505,-0.234660,-0.203221,1,1
85,3,-0.380726,-0.058510,-0.212815,-0.142935,-0.091621,1,1
96,3,-0.466091,0.077601,-0.157428,-0.130821,-0.201068,1,1
93,3,-0.385388,0.003548,-0.153565,-0.200604,-0.092135,1,1
97,3,-0.408413,0.104915,-0.079514,-0.160897,-0.114509,1,1
80,3,-0.417900,-0.007995,-0.196046,-0.182168,-0.185945,1,1
95,3,-0.322739,0.014793,-0.147715,-0.148067,-0.071286,1,1
99,3,-0.373379,0.069840,-0.238892,-0.147794,-0.113869,1,1
124,4,-0.416560,0.035234,-0.120912,-0.132444,-0.130886,1,1
159,4,-0.411823,0.016927,-0.306443,-0.154357,-0.164182,1,1
144,4,-0.343502,-0.054413,-0.247635,-0.178958,-0.147084,1,1
122,4,-0.384884,-0.032620,-0.129261,-0.210999,-0.178012,1,1
134,4,-0.396894,-0.020387,-0.189376,-0.154630,-0.174153,1,1
133,4,-0.353657,0.140673,-0.180190,-0.092461,-0.110071,1,0
128,4,-0.338074,-0.006477,-0.115622,-0.151383,-0.196857,1,1
129,4,-0.359283,0.078526,-0.166822,-0.174006,-0.138923,1,1
143,4,-0.396323,-0.021673,-0.291114,-0.196355,-0.125266,1,1
131,4,-0.352150,0.106318,-0.159513,-0.203275,-0.027494,1,1
120,4,-0.408604,0.066610,-0.135392,-0.150998,-0.115690,1,1
139,4,-0.302186,0.012273,-0.164713,-0.096495,-0.189014,1,1
142,4,-0.347685,-0.049249,-0.149143,-0.171668,-0.197856,1,1
152,4,-0.411840,-0.005175,-0.223313,-0.231722,-0.125093,1,1
148,4,-0.421708,0.038071,-0.241088,-0.231646,-0.197468,1,1
141,4,-0.359874,-0.046839,-0.207848,-0.211969,-0.173107,1,1
147,4,-0.372533,-0.023874,-0.204148,-0.174380,-0.146371,1,1
140,4,-0.345712,0.113233,-0.228648,-0.193894,-0.136680,1,1
149,4,-0.472259,0.049052,-0.231884,-0.120565,-0.143685,1,1
158,4,-0.464830,-0.094017,-0.191024,-0.156032,-0.205579,0,1
138,4,-0.442701,-0.035863,-0.159129,-0.157083,-0.164769,1,1
157,4,-0.418585,0.092439,-0.231240,-0.140954,-0.157766,1,1
154,4,-0.422306,-0.092300,-0.182838,-0.239992,-0.108448,0,1
125,4,-0.289881,0.045374,-0.135384,-0.265850,-0.129942,1,1
127,4,-0.436906,0.101278,-0.215420,-0.041485,-0.142252,1,1
132,4,-0.300972,0.158991,-0.102339,-0.163989,0.012727,1,0
151,4,-0.411973,-0.004619,-0.171430,-0.221127,-0.161811,1,1
145,4,-0.357009,0.042880,-0.220749,-0.179361,-0.161294,1,1
136,4,-0.450026,0.041232,-0.227332,-0.100564,0.007541,1,1
123,4,-0.430186,0.105840,-0.172197,-0.110043,-0.012019,1,1
121,4,-0.340524,0.111008,-0.228502,-0.168001,-0.048106,1,1
137,4,-0.479979,-0.076254,-0.145125,-0.159474,-0.119269,1,1
155,4,-0.428139,-0.129505,-0.247802,-0.184250,-0.184229,0,1
135,4,-0.380422,0.189352,-0.129946,-0.198511,-0.118724,1,0
146,4,-0.423480,-0.000339,-0.210767,-0.170584,-0.187647,1,1
156,4,-0.464669,-0.020076,-0.259214,-0.107856,-0.148570,1,1
150,4,-0.373434,-0.051838,-0.171117,-0.190904,-0.220460,1,1
126,4,-0.352422,0.087491,-0.144232,-0.205362,-0.036917,1,1
153,4,-0.409299,-0.064550,-0.130832,-0.197615,-0.131469,1,1
130,4,-0.356621,0.072055,-0.199139,-0.098432,-0.158912,1,1
183,5,-0.427716,0.020132,-0.204167,-0.196124,-0.107684,1,1
164,5,-0.370611,0.014632,-0.218211,-0.148502,-0.132458,1,1
184,5,-0.378507,0.045335,-0.150127,-0.175311,-0.186537,1,1
170,5,-0.426668,0.100392,-0.081432,-0.194091,-0.113042,1,1
163,5,-0.415314,-0.029569,-0.227987,-0.083394,-0.107113,1,1
181,5,-0.394878,-0.064875,-0.230107,-0.247243,-0.141340,1,1
182,5,-0.396084,-0.009709,-0.234584,-0.237424,-0.143082,1,1
168,5,-0.341066,0.034158,-0.193396,-0.097769,-0.083535,1,1
191,5,-0.385865,0.085901,-0.255822,-0.089061,-0.122933,1,1
195,5,-0.400722,-0.039432,-0.200444,-0.223519,-0.142619,1,1
193,5,-0.459575,0.049198,-0.124712,-0.192561,-0.245527,1,1
199,5,-0.341411,-0.067196,-0.307902,-0.149231,-0.083362,1,1
180,5,-0.313977,-0.035047,-0.196870,-0.163499,-0.252692,1,1
160,5,-0.467735,0.107416,-0.184233,-0.140173,-0.077317,1,0
175,5,-0.357590,0.037096,-0.219232,-0.217138,-0.065354,1,1
192,5,-0.330032,0.026294,-0.179391,-0.214117,-0.098758,1,1
171,5,-0.403965,0.058792,-0.183594,-0.091386,-0.081474,1,1
185,5,-0.425232,-0.020595,-0.207141,-0.277844,-0.202203,1,1
187,5,-0.434855,-0.058160,-0.207872,-0.236787,-0.124191,1,1
197,5,-0.413764,0.003709,-0.336695,-0.232573,-0.178762,1,1
177,5,-0.399840,0.029548,-0.161895,-0.192817,-0.137199,1,1
189,5,-0.359694,-0.052721,-0.244557,-0.212529,-0.102100,1,1
196,5,-0.433643,0.031214,-0.252139,-0.176664,-0.217069,1,1
188,5,-0.347653,-0.118228,-0.195955,-0.179294,-0.134587,0,1
173,5,-0.350363,0.030314,-0.167308,-0.139242,-0.152226,1,1
174,5,-0.386986,0.077728,-0.202437,-0.169422,-0.176916,1,1
194,5,-0.398640,0.000705,-0.215625,-0.211076,-0.175237,1,1
198,5,-0.401961,-0.041157,-0.216138,-0.263627,-0.176725,1,1
172,5,-0.370495,0.102377,-0.209071,-0.175845,-0.138825,1,1
178,5,-0.422963,0.000567,-0.196176,-0.163088,-0.131377,1,1
162,5,-0.451544,0.035711,-0.162299,-0.071952,-0.201507,1,1
167,5,-0.374657,0.035470,-0.021532,-0.088037,-0.082377,1,1
186,5,-0.375116,-0.024715,-0.209951,-0.196511,-0.129622,1,1
179,5,-0.407851,0.180994,-0.138876,-0.156268,-0.068998,1,0
165,5,-0.420523,0.052160,-0.205804,-0.088210,-0.115541,1,1
176,5,-0.454757,0.062437,-0.084345,-0.126501,-0.150965,1,1
166,5,-0.345615,0.093287,-0.147061,-0.151309,-0.115974,1,1
190,5,-0.256129,0.010978,-0.163423,-0.174170,-0.134071,1,1
169,5,-0.433716,0.029548,-0.143108,-0.129377,-0.117724,1,1
161,5,-0.499640,0.028039,-0.138034,-0.132748,-0.138781,1,1
235,6,-0.410360,-0.129292,-0.254392,-0.217684,-0.166129,0,1
201,6,-0.441218,0.118841,-0.083492,-0.060386,-0.090127,1,0
233,6,-0.381007,-0.049361,-0.243590,-0.114359,-0.140663,1,1
230,6,-0.352033,-0.042103,-0.236015,-0.256051,-0.159373,1,1
219,6,-0.386413,0.158722,-0.205190,-0.118765,-0.124367,1,0
212,6,-0.412871,0.039272,-0.148173,-0.186808,-0.084241,1,1
208,6,-0.416231,-0.006197,-0.110764,-0.209178,-0.154494,1,1
202,6,-0.442848,0.036332,-0.213703,-0.174251,-0.077990,1,1
210,6,-0.447448,-0.017023,-0.080567,-0.046228,-0.112157,1,1
205,6,-0.418966,0.064061,-0.165493,-0.125504,-0.158518,1,1
207,6,-0.312547,0.096088,-0.202831,-0.026967,-0.063532,1,1
226,6,-0.366410,0.046885,-0.237872,-0.191685,-0.113831,1,1
206,6,-0.397355,0.126826,-0.124039,-0.138707,-0.130158,1,0
238,6,-0.459293,0.005901,-0.221857,-0.194377,-0.152877,1,1
217,6,-0.451876,0.081651,-0.040718,-0.144214,-0.186617,1,1
225,6,-0.357728,-0.095737,-0.152706,-0.184539,-0.125258,0,1
204,6,-0.348818,0.066902,-0.059228,-0.147870,-0.165926,1,1
221,6,-0.407670,0.035270,-0.111924,-0.164044,-0.094085,1,1
237,6,-0.365622,0.020655,-0.261185,-0.130770,-0.152286,1,1
209,6,-0.419061,0.160983,-0.206925,-0.179219,-0.205692,1,0
200,6,-0.377139,0.048566,-0.138981,-0.125325,0.013816,1,1
228,6,-0.347283,-0.086284,-0.183408,-0.212780,-0.203046,0,1
239,6,-0.362005,0.001955,-0.249366,-0.223092,-0.024932,1,1
224,6,-0.343919,-0.041458,-0.106582,-0.152011,-0.119484,1,1
218,6,-0.426137,0.054411,-0.138790,-0.133764,-0.116919,1,1
215,6,-0.386065,0.028681,-0.159926,-0.165499,-0.103335,1,1
216,6,-0.427429,0.106980,-0.252890,-0.132673,-0.086177,1,1
231,6,-0.315762,-0.026574,-0.147964,-0.232036,-0.105568,1,1
227,6,-0.447224,-0.004824,-0.224249,-0.272253,-0.145896,1,1
220,6,-0.306990,0.066189,-0.290245,-0.144518,-0.294617,1,1
213,6,-0.426472,0.026337,-0.161904,-0.121637,-0.090193,1,1
214,6,-0.399185,0.079815,-0.084534,-0.152667,-0.095571,1,1
234,6,-0.331483,-0.053390,-0.140952,-0.214759,-0.171946,1,1
211,6,-0.338566,0.049125,-0.103456,-0.227080,-0.114494,1,1
232,6,-0.396835,-0.003074,-0.200553,-0.087642,-0.137151,1,1
236,6,-0.407400,0.013272,-0.220721,-0.108405,-0.193404,1,1
229,6,-0.341288,-0.028642,-0.198551,-0.164272,-0.136402,1,1
203,6,-0.434221,0.062500,-0.233769,-0.031721,-0.150530,1,1
222,6,-0.376014,-0.024023,-0.105646,-0.176878,-0.191203,1,1
223,6,-0.425750,-0.049877,-0.196808,-0.153507,-0.149711,1,1
253,7,-0.401176,0.136672,-0.193821,-0.158559,-0.083493,1,0
256,7,-0.349631,0.110470,-0.164725,-0.146076,-0.165110,1,1
247,7,-0.385988,0.079362,-0.093910,-0.218456,-0.124775,1,1
252,7,-0.383554,0.026721,-0.275196,-0.154136,-0.189359,1,1
269,7,-0.372126,0.027437,-0.152495,-0.195761,-0.188215,1,1
242,7,-0.521930,0.052530,-0.230670,-0.157163,-0.106634,1,0
265,7,-0.390357,-0.074022,-0.175496,-0.153468,-0.137491,1,1
274,7,-0.442165,-0.052644,-0.217986,-0.281449,-0.121394,1,1
275,7,-0.379225,0.031310,-0.135944,-0.153325,-0.158632,1,1
273,7,-0.282671,-0.083425,-0.092893,-0.216057,-0.134016,0,1
248,7,-0.429332,0.017505,-0.177113,-0.113476,-0.099033,1,1
260,7,-0.362966,-0.061503,-0.052272,-0.190446,-0.167267,1,1
244,7,-0.371992,0.078676,-0.151313,-0.114725,-0.179006,1,1
258,7,-0.365979,0.065030,-0.136751,-0.155156,-0.033714,1,1
251,7,-0.307611,0.043403,-0.170293,-0.149488,-0.145944,1,1
262,7,-0.389104,0.023854,-0.171074,-0.075928,-0.148329,1,1
261,7,-0.317767,-0.101559,-0.243236,-0.115295,-0.135943,0,1
268,7,-0.294470,-0.049672,-0.292680,-0.144216,-0.174256,1,1
249,7,-0.344643,0.107447,-0.126896,-0.008816,-0.129799,1,1
267,7,-0.398641,-0.100072,-0.178529,-0.215002,-0.125129,0,1
240,7,-0.272192,0.094496,-0.227235,-0.123131,-0.176731,1,0
246,7,-0.380173,0.036279,-0.088526,-0.181157,-0.115734,1,1
278,7,-0.302197,-0.108435,-0.219392,-0.175990,-0.085510,0,1
271,7,-0.326317,-0.036015,-0.164380,-0.159502,-0.124202,1,1
272,7,-0.356374,-0.028144,-0.273354,-0.256694,-0.174737,1,1
241,7,-0.401131,0.064588,-0.232919,-0.034019,-0.134311,1,1
250,7,-0.327308,0.013322,-0.161859,-0.054952,-0.138254,1,1
243,7,-0.431548,0.081504,-0.179703,-0.210498,-0.157134,1,1
277,7,-0.428560,-0.106757,-0.267609,-0.175452,-0.094808,0,1
279,7,-0.328652,-0.088432,-0.191939,-0.154316,-0.093351,0,1
259,7,-0.381017,-0.030811,-0.261958,-0.118060,-0.056874,1,1
255,7,-0.444721,0.138326,-0.108963,-0.176510,-0.197205,1,0
254,7,-0.504558,0.055477,-0.229273,-0.148023,-0.085622,1,0
245,7,-0.361301,0.090680,-0.130850,-0.032752,-0.039839,1,1
276,7,-0.321697,0.078014,-0.277432,-0.170336,-0.170725,1,1
266,7,-0.415039,-0.007343,-0.142392,-0.113778,-0.126602,1,1
263,7,-0.306089,0.055083,-0.181793,-0.146492,-0.113599,1,1
270,7,-0.393538,-0.044081,-0.232030,-0.173617,-0.236154,1,1
257,7,-0.437587,0.044977,-0.254371,-0.157981,-0.197017,1,1
264,7,-0.322917,-0.033118,-0.263565,-0.165732,-0.127287,1,1
295,8,-0.359740,0.019702,-0.205468,-0.202559,-0.105720,1,1
296,8,-0.362116,0.144561,-0.143661,-0.059645,-0.132755,1,0
301,8,-0.328327,-0.014156,-0.176010,-0.130587,-0.096917,1,1
314,8,-0.401513,-0.000895,-0.255432,-0.167660,-0.215492,1,1
283,8,-0.357427,0.067043,-0.225991,-0.051001,-0.006341,1,1
316,8,-0.278041,-0.016227,-0.148312,-0.222100,-0.158947,1,1
305,8,-0.434090,0.002276,-0.182465,-0.165029,-0.178205,1,1
290,8,-0.435304,0.056837,-0.202815,-0.192689,-0.101484,1,1
285,8,-0.438937,0.024152,-0.209055,-0.092097,-0.083738,1,1
306,8,-0.359136,-0.061247,-0.167424,-0.119495,-0.141827,1,1
284,8,-0.399542,0.134840,-0.080050,-0.172547,-0.053132,1,0
302,8,-0.353322,-0.072965,-0.197398,-0.207718,-0.147552,1,1
307,8,-0.336247,0.026977,-0.182481,-0.200906,-0.081310,1,1
281,8,-0.305332,0.100281,-0.073659,-0.182074,-0.063533,1,1
291,8,-0.364596,0.079200,-0.115654,-0.085852,-0.163716,1,1
289,8,-0.336260,0.050440,-0.191988,-0.100712,-0.101438,1,1
293,8,-0.399979,0.003622,-0.179858,-0.099045,-0.007036,1,1
318,8,-0.291054,-0.030609,-0.254994,-0.102055,-0.190565,1,1
310,8,-0.400234,-0.053117,-0.134580,-0.069479,-0.147899,1,1
315,8,-0.376860,-0.024618,-0.200395,-0.169034,-0.064680,1,1
297,8,-0.412989,0.067633,-0.159084,-0.214270,-0.094072,1,1
308,8,-0.318186,-0.071265,-0.260662,-0.194207,-0.113371,1,1
280,8,-0.346476,0.097984,-0.113366,-0.078601,-0.180890,1,1
299,8,-0.344242,0.037610,-0.081931,-0.153597,-0.158483,1,1
303,8,-0.303683,-0.023262,-0.232341,-0.168799,-0.210939,1,1
312,8,-0.347352,0.057497,-0.148302,-0.160155,-0.142426,1,1
319,8,-0.259701,-0.060786,-0.247091,-0.184675,-0.146175,0,1
309,8,-0.389295,-0.070686,-0.211638,-0.144090,-0.112504,1,1
304,8,-0.323705,-0.027853,-0.220636,-0.178670,-0.106261,1,1
311,8,-0.431729,-0.056456,-0.142823,-0.157135,-0.177625,1,1
300,8,-0.269997,0.031158,-0.187951,-0.138256,-0.251703,1,1
282,8,-0.397945,0.049428,-0.107154,-0.170935,-0.071470,1,1
298,8,-0.430235,0.017120,-0.085082,-0.121464,-0.145389,1,1
317,8,-0.371503,-0.040740,-0.245313,-0.204249,-0.049450,1,1
292,8,-0.271483,-0.001278,-0.194703,-0.262573,-0.092453,1,1
286,8,-0.455651,-0.010110,-0.153016,-0.107213,-0.095550,1,1
313,8,-0.304158,-0.006206,-0.204795,-0.130447,-0.152892,1,1
288,8,-0.386383,0.120504,-0.098571,-0.161255,-0.121946,1,0
287,8,-0.400530,0.024703,-0.203937,-0.164146,-0.050785,1,1
294,8,-0.323809,0.097095,-0.298275,-0.156681,-0.074832,1,1
338,9,-0.352562,0.096072,-0.210960,-0.174316,-0.101084,1,1
339,9,-0.356924,0.099832,-0.226726,-0.171871,-0.136744,1,1
331,9,-0.392923,0.082135,-0.222867,-0.150059,-0.015634,1,1
325,9,-0.383625,0.030011,-0.194695,-0.054745,-0.084195,1,1
349,9,-0.327127,-0.104503,-0.190989,-0.202092,-0.103431,0,1
335,9,-0.435257,-0.016668,-0.154899,-0.156122,-0.106891,1,1
340,9,-0.417331,-0.031244,-0.173294,-0.132345,-0.123592,1,1
357,9,-0.362262,-0.014974,-0.233205,-0.157246,-0.137106,1,1
332,9,-0.380166,0.052925,-0.122714,-0.091235,-0.154736,1,1
342,9,-0.364439,-0.087028,-0.171411,-0.239901,-0.141574,1,1
343,9,-0.364088,-0.001568,-0.188900,-0.190272,-0.142225,1,1
352,9,-0.345017,-0.021105,-0.196962,-0.097427,-0.154730,1,1
321,9,-0.358551,0.024288,-0.125978,-0.164624,-0.082045,1,1
324,9,-0.402373,0.115184,-0.146833,-0.098979,-0.126635,1,0
347,9,-0.309215,-0.113981,-0.139903,-0.173368,-0.171966,0,1
354,9,-0.415426,-0.026880,-0.127336,-0.212816,-0.075126,1,1
359,9,-0.493065,-0.063513,-0.127454,-0.248801,-0.095790,0,1
350,9,-0.378100,-0.045881,-0.150760,-0.144188,-0.183366,1,1
330,9,-0.273058,0.086696,-0.158417,-0.049419,-0.112784,1,1
327,9,-0.457578,0.142016,-0.126175,-0.070683,-0.040639,1,0
322,9,-0.386464,0.111573,-0.232088,-0.155117,-0.194089,1,1
326,9,-0.336964,0.040429,-0.174382,-0.091368,-0.184516,1,1
334,9,-0.339224,0.165727,-0.248806,-0.098580,-0.101365,1,0
323,9,-0.418137,-0.033158,-0.141400,-0.156230,-0.108846,1,1
353,9,-0.399122,-0.036232,-0.189645,-0.229129,-0.205365,1,1
348,9,-0.357196,-0.079479,-0.161033,-0.164188,-0.139475,1,1
356,9,-0.374626,-0.051794,-0.147757,-0.139210,-0.165745,1,1
320,9,-0.365730,0.011208,-0.212761,-0.092756,-0.045752,1,1
337,9,-0.395279,0.065177,-0.140031,-0.168421,-0.132543,1,1
333,9,-0.291879,0.023120,-0.130600,-0.109084,-0.067743,1,1
345,9,-0.317420,-0.021602,-0.229690,-0.032496,-0.174192,1,1
351,9,-0.366436,-0.013427,-0.183492,-0.060766,-0.100829,1,1
341,9,-0.406506,-0.044132,-0.188838,-0.179768,-0.139640,1,1
328,9,-0.408580,0.093543,-0.120140,-0.067099,-0.163699,1,1
344,9,-0.374258,-0.076956,-0.124043,-0.115240,-0.146050,1,1
329,9,-0.298722,0.060642,-0.212960,-0.153969,-0.138933,1,1
358,9,-0.276781,0.029634,-0.196131,-0.171524,-0.127578,1,1
355,9,-0.373859,-0.075165,-0.173129,-0.198422,-0.150133,1,1
346,9,-0.382226,0.026014,-0.120634,-0.116585,-0.098471,1,1
336,9,-0.375944,0.023237,-0.168470,-0.081887,-0.171705,1,1
389,10,-0.373888,-0.106234,-0.159538,-0.096779,-0.138294,0,1
385,10,-0.272011,-0.139552,-0.314810,-0.234802,-0.139434,0,1
386,10,-0.340383,-0.016912,-0.198303,-0.136148,-0.102825,1,1
370,10,-0.305481,0.090200,-0.152188,-0.180936,-0.064569,1,1
361,10,-0.366643,0.056598,-0.252722,-0.086461,-0.183595,1,1
362,10,-0.220052,0.063197,-0.096542,-0.052426,-0.082288,1,0
381,10,-0.303466,-0.116307,-0.169916,-0.036385,-0.133023,0,1
395,10,-0.304906,-0.105040,-0.225419,-0.048720,-0.099369,0,1
369,10,-0.351030,0.018251,-0.130948,-0.177757,-0.050410,1,1
398,10,-0.285408,0.048135,-0.152553,-0.151595,-0.107773,1,1
394,10,-0.400111,-0.118030,-0.242677,-0.197652,-0.176403,0,1
397,10,-0.287188,-0.096016,-0.285204,-0.252007,-0.060227,0,1
399,10,-0.339608,-0.044904,-0.187234,-0.105597,-0.175575,1,1
383,10,-0.312283,-0.010519,-0.152918,-0.243978,-0.154540,1,1
366,10,-0.347012,0.084025,-0.206491,-0.109758,-0.061273,1,1
374,10,-0.346374,0.038359,-0.220058,-0.135897,-0.080567,1,1
371,10,-0.422231,0.124482,-0.186480,-0.162577,-0.079219,1,0
382,10,-0.348957,-0.022540,-0.232069,-0.240246,-0.089658,1,1
396,10,-0.312753,-0.026942,-0.214352,-0.090189,-0.026831,1,1
378,10,-0.399428,0.050815,-0.174322,-0.101511,-0.152769,1,1
376,10,-0.368328,-0.036964,-0.160588,-0.078654,-0.127946,1,1
379,10,-0.418141,0.013540,-0.083171,-0.105693,-0.189935,1,1
390,10,-0.324949,-0.056823,-0.183282,-0.170524,-0.221701,1,1
391,10,-0.426885,0.035268,-0.110966,-0.144193,-0.132451,1,1
365,10,-0.310847,0.057028,-0.171335,-0.084021,-0.194908,1,1
375,10,-0.363147,0.126910,-0.171279,-0.088811,-0.164053,1,0
377,10,-0.378619,0.100331,-0.145884,-0.033100,-0.136445,1,1
363,10,-0.393666,0.013238,-0.141168,-0.115491,-0.066520,1,1
373,10,-0.334352,0.101125,-0.127708,-0.130467,-0.086789,1,1
360,10,-0.362863,0.146871,-0.115034,-0.185205,-0.070840,1,0
384,10,-0.387614,-0.057980,-0.166886,-0.185791,-0.142865,1,1
393,10,-0.263598,-0.044051,-0.164202,-0.249940,-0.122317,1,1
392,10,-0.386997,0.012271,-0.197778,-0.166071,-0.128816,1,1
372,10,-0.334002,0.064169,-0.109992,-0.162288,-0.166006,1,1
380,10,-0.341845,-0.081813,-0.253804,-0.094815,-0.026128,1,1
367,10,-0.431953,0.070781,-0.233310,-0.195092,-0.072777,1,1
364,10,-0.329866,0.043172,-0.103103,-0.085716,-0.189585,1,1
388,10,-0.385475,-0.075376,-0.261849,-0.097533,-0.170899,1,1
387,10,-0.310923,-0.032047,-0.105080,-0.258043,-0.133569,1,1
368,10,-0.451934,0.081500,-0.135923,-0.095451,-0.060405,1,0
429,11,-0.255709,0.032806,-0.107687,-0.190953,-0.101400,1,1
424,11,-0.329515,-0.077406,-0.145829,-0.095234,-0.143368,1,1
404,11,-0.429740,0.112638,-0.189231,-0.101940,-0.061106,1,0
415,11,-0.425109,0.073906,-0.078373,-0.141805,-0.145790,1,1
402,11,-0.320486,0.104781,-0.139125,-0.138320,-0.077258,1,1
432,11,-0.339132,-0.115485,-0.135087,-0.211731,-0.136191,0,1
431,11,-0.389549,-0.051090,-0.286932,-0.123546,-0.121827,1,1
425,11,-0.275374,-0.014446,-0.245884,-0.046376,-0.086920,1,1
418,11,-0.339853,0.004771,-0.219459,-0.175002,-0.111162,1,1
407,11,-0.305321,0.087683,-0.098524,-0.066749,-0.038276,1,1
416,11,-0.341224,0.033814,-0.131469,-0.094669,-0.094436,1,1
427,11,-0.367227,-0.035193,-0.103560,-0.044336,-0.093467,1,1
400,11,-0.384026,0.025670,-0.108451,-0.091088,-0.041620,1,1
430,11,-0.274394,-0.026310,-0.201754,-0.208499,-0.117381,1,1
439,11,-0.260700,-0.051607,-0.171045,-0.182245,-0.044165,0,1
420,11,-0.256628,-0.047949,-0.110895,-0.098766,-0.136687,0,1
437,11,-0.409607,0.020784,-0.135000,-0.154129,-0.169594,1,1
417,11,-0.318985,-0.000002,-0.221210,-0.039801,-0.057146,1,1
412,11,-0.418522,0.096379,-0.112147,-0.057179,-0.116528,1,0
411,11,-0.339401,0.085654,-0.165028,-0.123654,-0.094179,1,1
409,11,-0.316178,0.007378,-0.113384,-0.088565,-0.039331,1,1
435,11,-0.318372,0.016154,-0.254970,-0.219395,-0.087267,1,1
433,11,-0.302256,0.040883,-0.166826,-0.165694,-0.153207,1,1
410,11,-0.401007,0.153603,-0.080853,-0.116346,-0.020645,1,0
422,11,-0.295642,0.002063,-0.196438,-0.156953,-0.087051,1,1
434,11,-0.330468,-0.061132,-0.207851,-0.169934,-0.029357,1,1
406,11,-0.435692,0.023550,-0.264154,-0.130461,0.032088,1,1
413,11,-0.325894,-0.042804,-0.030006,-0.165186,-0.000908,1,1
405,11,-0.296136,-0.033905,-0.144769,-0.129580,-0.061688,1,1
426,11,-0.337890,-0.038193,-0.134370,-0.183376,-0.190204,1,1
403,11,-0.381804,0.026230,-0.144270,-0.100706,-0.120050,1,1
419,11,-0.359918,0.090966,-0.122119,-0.131861,-0.181739,1,1
414,11,-0.281437,-0.039623,-0.186473,-0.085940,-0.127103,1,1
421,11,-0.278460,-0.049988,-0.146282,-0.172399,-0.100949,1,1
401,11,-0.317322,0.087787,-0.125372,-0.152256,-0.135547,1,1
428,11,-0.319677,0.019748,-0.276645,-0.049561,-0.130962,1,1
438,11,-0.311572,0.035466,-0.184520,-0.096136,-0.132301,1,1
408,11,-0.256290,0.057213,-0.111227,-0.058246,-0.107189,1,1
423,11,-0.287319,0.019079,-0.216313,-0.157475,-0.005750,1,1
436,11,-0.309610,-0.088219,-0.134700,-0.086548,-0.204925,0,1
448,12,-0.381540,0.173831,-0.194590,-0.138763,-0.214987,1,0
477,12,-0.327561,-0.039666,-0.126043,-0.169365,-0.223541,1,1
445,12,-0.385243,-0.030637,-0.120339,-0.092294,-0.033320,1,1
474,12,-0.354818,-0.125346,-0.196605,-0.215329,-0.178966,0,1
449,12,-0.400347,0.043928,-0.159484,-0.115623,-0.106264,1,1
467,12,-0.317200,-0.001400,-0.197980,-0.133095,-0.091583,1,1
472,12,-0.221945,-0.117268,-0.211547,-0.208043,-0.152086,0,1
461,12,-0.320483,-0.025335,-0.113658,-0.235329,-0.157526,1,1
478,12,-0.248241,0.073163,-0.140033,-0.098873,-0.155570,1,1
452,12,-0.376801,0.076662,-0.177176,-0.121507,-0.067370,1,1
475,12,-0.220775,-0.031699,-0.186118,-0.032496,-0.113920,0,1
454,12,-0.316791,0.035847,-0.070316,-0.051680,-0.066955,1,1
440,12,-0.342965,0.089623,-0.130617,-0.056366,-0.100291,1,1
444,12,-0.337073,0.116008,-0.128711,-0.055420,-0.128021,1,1
457,12,-0.317406,0.131933,-0.155184,-0.035075,-0.089013,1,0
441,12,-0.382195,0.102575,-0.212944,-0.137758,-0.090187,1,1
465,12,-0.297462,0.001583,-0.167071,-0.175199,-0.095810,1,1
451,12,-0.368924,0.057917,-0.106702,-0.113694,-0.129800,1,1
446,12,-0.242619,0.038036,-0.040821,-0.115638,-0.076090,1,1
458,12,-0.358174,0.144214,-0.098871,-0.168936,-0.078326,1,0
462,12,-0.317333,0.040863,-0.146856,-0.125148,-0.108396,1,1
473,12,-0.317705,-0.021562,-0.188676,-0.091449,-0.090298,1,1
450,12,-0.378688,0.022505,-0.188809,-0.108555,-0.098235,1,1
470,12,-0.278124,0.011451,-0.134478,-0.181865,-0.096927,1,1
456,12,-0.249853,0.146549,-0.179367,-0.126966,-0.125503,1,0
464,12,-0.258497,-0.136252,-0.245950,-0.013769,-0.106075,0,1
460,12,-0.320374,-0.062783,-0.185790,-0.126833,-0.154735,1,1
476,12,-0.270526,0.008564,-0.129550,-0.039794,-0.128491,1,1
471,12,-0.359595,-0.145280,-0.106413,-0.265913,-0.082629,0,1
463,12,-0.255926,0.012379,-0.159306,-0.197381,-0.119864,1,1
469,12,-0.315117,-0.001934,-0.133883,-0.146587,-0.129154,1,1
479,12,-0.352452,0.055966,-0.155028,-0.108144,-0.075466,1,1
455,12,-0.333623,0.006182,-0.093801,-0.067347,-0.048107,1,1
468,12,-0.348496,-0.027574,-0.203521,-0.121846,-0.048308,1,1
466,12,-0.222015,-0.056212,-0.267535,-0.161740,-0.129739,0,1
459,12,-0.355327,0.023234,-0.053140,-0.075580,-0.102973,1,1
453,12,-0.356972,-0.002936,-0.174170,-0.160776,-0.080527,1,1
443,12,-0.313673,0.056510,-0.220408,-0.054287,-0.118774,1,1
442,12,-0.341110,0.076734,-0.208027,-0.135513,-0.100260,1,1
447,12,-0.413510,0.017219,-0.153002,-0.175817,-0.131696,1,1
504,13,-0.228835,-0.008659,-0.209839,-0.109182,-0.184009,1,1
515,13,-0.248298,-0.039642,-0.278558,-0.215641,-0.187422,1,1
517,13,-0.348586,-0.042314,-0.197521,-0.084820,-0.082975,1,1
493,13,-0.391807,-0.078678,-0.131794,-0.146417,-0.003776,1,1
483,13,-0.322991,-0.023683,-0.102176,-0.097880,-0.081658,1,1
513,13,-0.322934,-0.019139,-0.183765,-0.147060,-0.139611,1,1
496,13,-0.417711,-0.021573,-0.146744,-0.108522,-0.090296,1,1
500,13,-0.352534,-0.103158,-0.167406,-0.183485,-0.198241,0,1
494,13,-0.420703,0.025928,-0.218412,-0.063081,-0.141338,1,1
499,13,-0.302668,0.075890,-0.139967,-0.109636,-0.149429,1,1
503,13,-0.344648,-0.026680,-0.149934,-0.107800,-0.112656,1,1
490,13,-0.266174,0.149952,-0.161946,-0.094234,-0.030121,1,0
482,13,-0.403199,0.076778,-0.152086,-0.052108,-0.088607,1,1
502,13,-0.262940,0.015618,-0.280017,-0.105572,-0.235198,1,1
519,13,-0.267675,-0.041248,-0.212553,-0.210648,-0.189946,1,1
488,13,-0.295792,0.024481,-0.167967,-0.140284,-0.073581,1,1
509,13,-0.327820,-0.003099,-0.104133,-0.131347,-0.088259,1,1
484,13,-0.405443,0.083895,-0.117112,-0.165862,-0.151859,1,0
511,13,-0.199600,-0.042316,-0.153446,-0.210946,-0.122316,0,1
505,13,-0.206242,0.021943,-0.170244,-0.100343,-0.017447,1,1
518,13,-0.306781,-0.054587,-0.219971,-0.164436,-0.075720,1,1
485,13,-0.471965,0.023809,-0.169233,-0.072562,-0.087104,1,0
512,13,-0.257587,-0.051744,-0.146724,-0.186658,-0.071232,1,1
487,13,-0.334090,0.024666,-0.132628,-0.046716,-0.123588,1,1
506,13,-0.283773,-0.060072,-0.188904,-0.165531,-0.126476,1,1
481,13,-0.366255,0.087720,-0.165084,-0.048507,-0.071618,1,1
495,13,-0.370067,0.136071,-0.154741,-0.033508,-0.075253,1,0
508,13,-0.242357,-0.123706,-0.183077,-0.257816,-0.147114,0,1
516,13,-0.265638,-0.031420,-0.195369,-0.178819,-0.127643,1,1
486,13,-0.384615,0.085402,-0.052389,-0.074062,-0.082052,1,1
501,13,-0.295144,-0.014290,-0.162846,-0.191821,-0.176910,1,1
498,13,-0.405809,0.066931,-0.136972,-0.063995,-0.098632,1,1
489,13,-0.331716,0.085457,-0.076877,-0.085757,-0.133313,1,1
492,13,-0.334936,0.080321,-0.201617,-0.104437,-0.023534,1,1
497,13,-0.366058,0.009621,-0.131418,-0.095175,-0.103979,1,1
514,13,-0.274731,-0.053277,-0.101912,-0.083932,-0.160292,1,1
491,13,-0.372165,0.064494,-0.175628,-0.128686,-0.057342,1,1
507,13,-0.216487,-0.126174,-0.102036,-0.163213,-0.117878,0,1
510,13,-0.342101,-0.019762,-0.111994,-0.173411,-0.110480,1,1
480,13,-0.330083,0.007996,-0.170546,-0.089223,-0.083396,1,1
524,14,-0.269751,0.044812,-0.113037,-0.123562,-0.011578,1,1
536,14,-0.397392,0.039825,-0.082424,-0.200160,-0.137752,1,1
539,14,-0.353930,0.010441,-0.103400,-0.041335,0.032547,1,1
522,14,-0.308334,0.023087,-0.103830,-0.138080,-0.167031,1,1
549,14,-0.226278,-0.058460,-0.159884,-0.236342,-0.095779,0,1
526,14,-0.359144,0.012723,-0.058415,-0.131882,-0.133926,1,1
520,14,-0.285235,0.081083,-0.151709,-0.093473,-0.081406,1,1
558,14,-0.308031,-0.084749,-0.134179,-0.058191,-0.202515,1,1
527,14,-0.376997,0.079995,-0.126282,-0.120140,-0.136840,1,1
537,14,-0.289988,0.093579,-0.115535,-0.124311,-0.164810,1,1
528,14,-0.304974,0.083365,-0.068059,-0.134261,-0.112064,1,1
534,14,-0.287563,0.085612,-0.258320,-0.066542,-0.103777,1,1
557,14,-0.435902,-0.094429,-0.179526,-0.131030,-0.127441,0,1
523,14,-0.387493,0.115454,-0.115734,-0.074578,-0.139248,1,0
532,14,-0.276932,0.064739,-0.104425,-0.070531,-0.049712,1,1
543,14,-0.186099,-0.095327,-0.118687,-0.057203,-0.084450,0,1
525,14,-0.344211,0.007041,-0.096692,-0.128966,-0.055963,1,1
542,14,-0.297222,0.004884,-0.090473,-0.118992,-0.105642,1,1
551,14,-0.234624,-0.002170,-0.190858,-0.167057,-0.148668,1,1
554,14,-0.309658,0.003993,-0.138218,-0.130286,-0.138412,1,1
531,14,-0.351989,0.045632,-0.047113,-0.069784,-0.082118,1,1
538,14,-0.298760,0.048805,-0.082720,-0.188345,-0.109646,1,1
553,14,-0.244782,0.021751,-0.200426,-0.078916,-0.199697,1,1
552,14,-0.282972,-0.088349,-0.208410,-0.149729,-0.109180,0,1
550,14,-0.364706,0.013352,-0.150414,-0.243501,-0.037053,1,1
544,14,-0.342097,0.002193,-0.124330,-0.157877,-0.109595,1,1
547,14,-0.306987,-0.010135,-0.137902,-0.168248,-0.131051,1,1
529,14,-0.357896,0.037156,-0.126736,-0.163730,-0.132536,1,1
541,14,-0.375576,-0.089518,-0.162324,-0.241782,-0.176115,0,1
559,14,-0.316173,-0.096929,-0.140338,-0.172102,-0.152606,0,1
521,14,-0.354020,0.054300,-0.071039,-0.083252,-0.090727,1,1
546,14,-0.180226,-0.035607,-0.228087,-0.152721,-0.067500,0,1
540,14,-0.255897,-0.009529,-0.126657,-0.048001,-0.121326,1,1
533,14,-0.263634,0.010057,-0.180001,-0.154188,-0.197505,1,1
548,14,-0.275707,-0.042280,-0.165479,-0.115853,-0.168714,1,1
535,14,-0.301048,0.010407,-0.128471,-0.073148,-0.070698,1,1
545,14,-0.272752,-0.051169,-0.217697,-0.099526,-0.072238,1,1
555,14,-0.253386,0.013329,-0.175772,-0.208694,-0.095339,1,1
530,14,-0.359166,0.136628,-0.146002,-0.084247,-0.133206,1,0
556,14,-0.273657,-0.111650,-0.187957,-0.025260,-0.169479,0,1
594,15,-0.280749,-0.022091,-0.199387,-0.134364,-0.157340,1,1
595,15,-0.304733,0.011818,-0.068568,-0.091615,-0.109656,1,1
566,15,-0.311370,0.028477,-0.146524,-0.081504,0.000754,1,1
560,15,-0.283204,-0.019858,-0.133682,-0.056882,-0.096902,1,1
593,15,-0.408708,-0.007362,-0.133338,-0.065796,-0.102839,1,1
582,15,-0.228050,-0.090625,-0.082931,-0.095121,-0.086020,0,1
587,15,-0.229478,-0.030340,-0.175584,-0.151495,-0.142901,1,1
580,15,-0.349865,0.020809,-0.258958,-0.134705,-0.064621,1,1
586,15,-0.393576,-0.031792,-0.248535,-0.236430,-0.048820,1,1
563,15,-0.318111,0.026163,-0.063989,-0.177832,0.005616,1,1
568,15,-0.322175,0.091931,-0.160203,-0.124184,-0.029859,1,1
567,15,-0.329513,0.054491,-0.106961,-0.175654,-0.077537,1,1
572,15,-0.285084,-0.039433,-0.152595,-0.144134,-0.062659,1,1
577,15,-0.328662,0.011402,-0.118483,-0.094887,-0.112091,1,1
571,15,-0.353992,0.046936,-0.031901,-0.075004,-0.024936,1,1
561,15,-0.267595,-0.005568,-0.123125,-0.087908,0.020220,1,1
590,15,-0.188326,-0.019461,-0.163128,-0.193598,-0.101330,0,1
596,15,-0.219337,-0.016925,-0.194660,-0.086889,-0.083097,1,1
581,15,-0.191862,-0.059482,-0.173855,-0.113403,-0.087389,0,1
597,15,-0.338012,-0.039042,-0.065135,-0.170348,-0.088821,1,1
591,15,-0.302905,-0.016844,-0.165998,-0.094777,-0.072037,1,1
588,15,-0.177397,-0.083144,-0.218212,-0.149522,0.000879,0,1
584,15,-0.380968,-0.088410,-0.159686,-0.104667,-0.113757,0,1
574,15,-0.288074,-0.004702,-0.096080,-0.071837,-0.146615,1,1
575,15,-0.292969,0.118162,-0.039362,-0.154859,-0.045189,1,1
576,15,-0.394858,0.084910,-0.141723,-0.030610,-0.049613,1,0
598,15,-0.355145,-0.020232,-0.188694,-0.139905,-0.068626,1,1
573,15,-0.300484,-0.043194,-0.136753,-0.157207,-0.036968,1,1
599,15,-0.297120,0.043252,-0.199554,-0.182517,-0.138095,1,1
592,15,-0.265809,-0.034585,-0.173933,-0.194769,-0.151181,1,1
565,15,-0.289159,0.179256,-0.132822,-0.139770,-0.123137,1,0
579,15,-0.298333,0.086175,-0.067251,-0.156132,-0.007318,1,1
569,15,-0.225352,0.067983,-0.159407,-0.194896,-0.078818,1,1
589,15,-0.204585,0.038025,-0.128725,-0.153927,-0.082624,1,1
564,15,-0.327834,0.006442,-0.122911,-0.157578,-0.109636,1,1
585,15,-0.261835,-0.048601,-0.145776,-0.133086,-0.031608,1,1
570,15,-0.341876,-0.051267,-0.247321,-0.132298,-0.115809,1,1
562,15,-0.396329,0.003890,-0.193484,-0.123796,-0.073514,1,1
578,15,-0.387985,0.041850,-0.126395,-0.134514,-0.088715,1,1
583,15,-0.322791,-0.097846,-0.111493,-0.135588,-0.028407,0,1
630,16,-0.278642,-0.020842,-0.131164,-0.142939,-0.116645,1,1
608,16,-0.331348,0.058735,-0.211363,-0.125363,-0.019851,1,1
624,16,-0.193123,0.011092,-0.156586,-0.116715,-0.020027,1,1
602,16,-0.258960,0.104410,-0.092955,-0.083235,-0.131865,1,1
632,16,-0.245305,-0.013610,-0.158907,-0.234572,-0.140886,1,1
612,16,-0.324514,-0.002746,-0.057707,-0.079099,-0.068575,1,1
639,16,-0.258513,-0.019380,-0.123553,-0.225410,-0.086659,1,1
621,16,-0.242751,-0.020549,-0.133327,-0.071122,-0.164829,1,1
636,16,-0.231980,0.040124,-0.062511,-0.010991,-0.095197,1,1
601,16,-0.303495,0.131099,-0.069637,-0.022005,-0.079296,1,0
638,16,-0.200449,-0.026030,-0.098479,-0.057002,-0.117655,1,1
637,16,-0.225562,0.009518,-0.215989,-0.147373,-0.126846,1,1
613,16,-0.333027,0.172903,-0.128309,-0.079262,-0.029824,1,0
622,16,-0.169366,-0.074959,-0.093429,-0.112221,-0.132526,0,1
600,16,-0.417856,0.146801,-0.073797,-0.131555,-0.083942,1,0
633,16,-0.213806,-0.052919,-0.171620,-0.081547,-0.079111,0,1
607,16,-0.302047,0.059315,-0.188949,-0.156743,-0.090214,1,1
610,16,-0.351421,0.074130,-0.089354,-0.251318,-0.108387,1,1
606,16,-0.378377,0.004858,-0.069756,-0.088567,-0.074905,1,1
634,16,-0.302663,-0.168038,-0.098400,-0.133361,-0.147384,0,1
603,16,-0.365711,0.086210,-0.141189,-0.123407,-0.129620,1,0
618,16,-0.322296,0.071622,-0.140624,-0.072022,-0.167733,1,1
615,16,-0.310462,0.048435,-0.146617,-0.134492,-0.094437,1,1
625,16,-0.217000,-0.090299,-0.101420,-0.139005,-0.084184,0,1
626,16,-0.309189,-0.033013,-0.137194,-0.093527,-0.045667,1,1
605,16,-0.354434,0.138294,-0.129809,-0.115397,-0.034398,1,0
635,16,-0.223885,-0.056719,-0.148328,-0.119852,-0.095899,0,1
623,16,-0.238483,0.035118,-0.176481,-0.105118,0.058549,1,1
620,16,-0.214175,0.030332,-0.148951,-0.233001,-0.167637,1,1
619,16,-0.269484,-0.016893,-0.161205,-0.095321,-0.102135,1,1
617,16,-0.359537,0.076221,-0.125210,-0.109796,-0.075266,1,1
627,16,-0.269939,-0.083971,-0.057800,-0.097471,-0.129314,0,1
604,16,-0.278955,0.031642,-0.072213,-0.116344,-0.028261,1,1
629,16,-0.256367,-0.149929,-0.231804,-0.030888,-0.056350,0,1
631,16,-0.208784,-0.055516,-0.059689,-0.082966,-0.088063,0,1
616,16,-0.342144,-0.000334,-0.100914,-0.111265,-0.134828,1,1
614,16,-0.389962,0.052489,-0.110474,-0.090160,-0.059019,1,1
609,16,-0.271664,0.099565,-0.082189,-0.078845,-0.044486,1,1
628,16,-0.280110,-0.018352,-0.133464,-0.066035,-0.082260,1,1
611,16,-0.358100,0.051975,-0.150866,-0.107518,-0.141432,1,1
671,17,-0.244293,0.002776,-0.229730,-0.191483,-0.169880,1,1
645,17,-0.231196,0.015911,-0.132565,-0.000612,-0.098744,1,1
646,17,-0.223036,0.040846,-0.098356,-0.103819,-0.035122,1,1
654,17,-0.206500,0.062821,-0.047137,-0.075771,-0.086934,1,1
670,17,-0.279945,-0.028777,-0.162036,-0.138502,-0.144597,1,1
674,17,-0.192234,-0.025156,-0.195889,-0.135250,-0.095808,1,1
668,17,-0.267145,-0.079113,-0.082566,-0.053296,-0.190488,1,1
665,17,-0.348893,-0.108658,-0.089935,-0.067263,-0.107445,0,1
640,17,-0.458395,0.073022,-0.130445,-0.059381,-0.133865,1,0
660,17,-0.273887,-0.138454,-0.273234,-0.143411,-0.154780,0,1
663,17,-0.263441,-0.023098,-0.128743,-0.122635,-0.075362,1,1
653,17,-0.338987,0.085392,-0.184481,-0.156111,-0.139289,1,1
677,17,-0.271574,-0.057953,-0.131137,-0.209464,-0.028766,1,1
666,17,-0.230156,-0.031998,-0.073294,-0.183962,-0.056071,1,1
656,17,-0.348631,-0.036155,-0.089966,-0.139731,-0.062964,1,1
657,17,-0.381795,0.005376,-0.024504,-0.081582,-0.169814,1,1
679,17,-0.328260,-0.059369,-0.071704,-0.135591,-0.120145,1,1
642,17,-0.276261,0.083178,-0.182652,-0.041239,-0.017024,1,1
641,17,-0.243915,0.042019,-0.180009,-0.145015,-0.111646,1,1
650,17,-0.315914,0.051913,-0.138957,-0.055371,0.016401,1,1
664,17,-0.158238,-0.009261,-0.170424,-0.122082,-0.071281,0,1
673,17,-0.266717,-0.148736,-0.133693,-0.199116,-0.053811,0,1
676,17,-0.270200,-0.053852,-0.160246,-0.066343,-0.194931,1,1
678,17,-0.295869,-0.003866,-0.138111,-0.179125,-0.118941,1,1
672,17,-0.312223,-0.018083,-0.068202,-0.098014,-0.131245,1,1
675,17,-0.330503,-0.086014,-0.195638,-0.124714,-0.150031,0,1
669,17,-0.272256,-0.036595,-0.107989,-0.145270,-0.055737,1,1
661,17,-0.256740,-0.172613,-0.176432,-0.112178,-0.042920,0,1
667,17,-0.288655,-0.022135,-0.134292,-0.160646,-0.094737,1,1
643,17,-0.355951,0.052135,-0.136832,-0.164443,-0.025382,1,1
644,17,-0.300743,0.056990,-0.052058,-0.065552,-0.112690,1,1
655,17,-0.374587,0.045685,-0.162290,-0.108560,-0.067204,1,1
652,17,-0.295707,0.121589,-0.179408,-0.131165,-0.145463,1,0
648,17,-0.350806,0.056675,-0.082048,-0.083566,-0.146491,1,1
649,17,-0.338369,0.084595,-0.099896,-0.056485,-0.027557,1,1
658,17,-0.403267,0.065307,-0.090044,-0.158434,-0.013366,1,0
651,17,-0.279776,0.076886,-0.048271,-0.094207,-0.117297,1,1
659,17,-0.283783,0.078604,0.002859,-0.017977,-0.102695,1,1
647,17,-0.345542,0.074242,-0.151439,-0.157310,-0.100631,1,1
662,17,-0.354290,-0.078369,-0.050473,-0.123992,-0.021784,1,1
702,18,-0.267604,0.024220,-0.078076,-0.116428,-0.086429,1,1
704,18,-0.224931,-0.061922,-0.193233,-0.089236,-0.098460,1,1
712,18,-0.285950,0.002529,-0.105465,-0.154966,-0.086730,1,1
688,18,-0.340700,-0.003446,-0.108321,-0.165144,-0.119742,1,1
699,18,-0.293171,0.051291,-0.146681,-0.115774,-0.203509,1,1
706,18,-0.308881,0.066936,-0.203931,-0.132809,-0.126832,1,1
680,18,-0.232501,0.075200,-0.146103,-0.095157,-0.110557,1,1
717,18,-0.341820,0.020751,-0.117140,-0.139248,-0.055376,1,1
681,18,-0.205423,0.029868,-0.147265,-0.109846,-0.076235,1,1
700,18,-0.291412,-0.069935,-0.106558,-0.065170,-0.069598,1,1
695,18,-0.316906,-0.063766,-0.108085,-0.166256,-0.043546,1,1
697,18,-0.264381,0.059604,-0.077138,-0.159870,-0.077353,1,1
685,18,-0.348773,0.058976,-0.104746,0.020860,-0.042823,1,1
687,18,-0.255973,-0.023134,-0.072361,-0.134789,-0.114016,1,1
683,18,-0.377697,0.148159,-0.108741,-0.083686,-0.068309,1,0
703,18,-0.361001,-0.070277,-0.074614,-0.103695,-0.097547,1,1
693,18,-0.312669,0.021894,-0.108330,-0.053629,-0.082555,1,1
709,18,-0.404857,0.001414,-0.026913,-0.071822,-0.079182,1,1
707,18,-0.340519,-0.060961,-0.148704,-0.163735,-0.113937,1,1
698,18,-0.262787,0.010229,-0.131222,-0.165131,-0.019560,1,1
689,18,-0.286055,0.041761,-0.143124,-0.084726,-0.074637,1,1
696,18,-0.227919,0.167595,-0.069845,-0.020358,-0.029620,1,0
705,18,-0.305245,-0.016377,-0.148627,-0.076313,-0.010601,1,1
710,18,-0.234516,-0.059217,-0.140458,-0.023195,-0.010306,1,1
686,18,-0.403204,-0.033106,-0.088364,-0.069242,-0.112122,1,1
694,18,-0.340716,0.067779,-0.041884,-0.099513,-0.119093,1,1
684,18,-0.285295,0.032148,-0.112854,-0.083750,-0.106506,1,1
701,18,-0.260182,-0.091152,-0.199146,-0.157615,0.032709,0,1
692,18,-0.289388,0.016627,-0.171822,-0.158717,0.000929,1,1
691,18,-0.321777,0.038665,-0.133082,-0.095184,-0.053139,1,1
708,18,-0.311656,0.016157,-0.074305,-0.149930,-0.086332,1,1
718,18,-0.210781,0.025404,-0.262092,-0.150238,-0.069638,1,1
713,18,-0.254173,0.043523,-0.101956,-0.107669,-0.167928,1,1
715,18,-0.274445,-0.094075,-0.171574,-0.133107,-0.049768,0,1
714,18,-0.216441,-0.010381,-0.178642,-0.164472,-0.071449,1,1
690,18,-0.219524,0.018764,-0.130858,-0.101702,-0.071404,1,1
716,18,-0.251234,0.002425,-0.187600,-0.085256,-0.069186,1,1
711,18,-0.220187,-0.039805,-0.138053,-0.124975,-0.044391,1,1
719,18,-0.255866,0.019642,-0.088955,-0.135477,-0.116767,1,1
682,18,-0.218205,0.052306,-0.123781,-0.131021,0.034122,1,1
747,19,-0.154796,-0.042169,-0.138432,-0.133274,-0.167966,0,1
736,19,-0.244706,-0.014437,-0.199546,-0.028100,-0.094751,1,1
735,19,-0.273171,0.045121,-0.147322,-0.148699,-0.032919,1,1
757,19,-0.259274,-0.079710,-0.107683,-0.172974,-0.032999,1,1
759,19,-0.174144,0.021549,-0.097484,-0.051803,-0.185343,1,1
734,19,-0.410648,0.074155,-0.104198,-0.103808,-0.095780,1,0
746,19,-0.220611,0.102747,-0.078415,-0.185255,0.009861,1,1
745,19,-0.274166,0.083351,-0.043219,-0.103075,-0.130176,1,1
749,19,-0.279413,-0.040254,-0.236342,-0.093545,-0.102783,1,1
733,19,-0.215531,0.040198,-0.131611,-0.118996,-0.133035,1,1
731,19,-0.288826,0.046799,-0.032722,-0.091852,-0.031678,1,1
730,19,-0.279632,0.047698,-0.134224,-0.094161,-0.109467,1,1
728,19,-0.212497,0.075541,-0.170506,-0.093411,-0.166856,1,1
732,19,-0.284833,0.090234,-0.214097,-0.143204,-0.123411,1,1
758,19,-0.290005,-0.059566,-0.153973,-0.106078,0.014587,1,1
742,19,-0.238143,-0.020992,-0.113555,-0.048173,-0.083862,1,1
755,19,-0.196802,-0.054959,-0.198918,-0.121008,-0.082252,0,1
753,19,-0.251359,-0.043882,-0.164703,0.017509,-0.120769,1,1
725,19,-0.298441,0.106938,-0.082854,-0.059846,-0.202621,1,1
726,19,-0.261225,0.013128,-0.075577,-0.214115,-0.081293,1,1
741,19,-0.311963,-0.065900,-0.147935,-0.061855,-0.169642,1,1
737,19,-0.294851,0.043165,-0.108903,-0.086854,-0.018377,1,1
754,19,-0.204570,-0.004219,-0.133100,-0.191889,-0.148173,1,1
729,19,-0.350910,0.101074,-0.093639,-0.115159,-0.098203,1,0
752,19,-0.230923,-0.045522,-0.120546,-0.030085,-0.026381,1,1
739,19,-0.316872,-0.011821,-0.097649,-0.083976,0.011636,1,1
756,19,-0.329149,-0.015231,-0.047472,-0.080527,-0.069030,1,1
723,19,-0.225992,0.083528,-0.121130,-0.007530,0.037991,1,1
751,19,-0.125527,0.072065,-0.130878,-0.083790,-0.097888,0,1
743,19,-0.174251,0.010659,-0.187189,-0.029465,-0.018535,1,1
720,19,-0.216178,0.090026,-0.161469,-0.069393,-0.094417,1,1
740,19,-0.238250,-0.055989,-0.115488,-0.071752,-0.071797,1,1
748,19,-0.255524,-0.013993,-0.162586,-0.221272,-0.177576,1,1
722,19,-0.309374,0.013077,-0.132775,-0.110874,-0.067378,1,1
738,19,-0.254061,0.117144,-0.086921,-0.110108,-0.069242,1,1
727,19,-0.315842,0.093272,-0.049433,-0.135631,-0.116565,1,1
750,19,-0.312065,-0.002527,-0.149351,-0.107368,-0.089544,1,1
744,19,-0.231417,-0.054566,-0.096793,-0.150300,-0.075313,1,1
724,19,-0.299837,0.092900,-0.115976,-0.014796,-0.139927,1,1
721,19,-0.348080,0.013033,-0.162857,-0.017917,-0.081387,1,1
790,20,-0.268495,-0.049053,-0.159011,-0.130531,-0.074315,1,1
779,20,-0.348410,0.046031,-0.091712,-0.075355,-0.092290,1,1
774,20,-0.299953,0.075645,-0.088426,-0.141143,-0.058765,1,1
793,20,-0.243928,-0.054225,-0.191613,-0.148637,-0.076294,1,1
773,20,-0.314976,0.048003,-0.183113,-0.098711,-0.009461,1,1
780,20,-0.225801,0.002417,-0.176513,-0.099573,-0.098280,1,1
764,20,-0.349262,-0.118289,-0.129052,-0.078512,0.025170,1,1
760,20,-0.291216,0.059990,-0.127038,-0.106847,0.001981,1,1
762,20,-0.255758,0.098354,-0.114921,-0.152635,-0.030830,1,1
770,20,-0.203679,0.091731,-0.130940,-0.036740,-0.053921,1,1
768,20,-0.168285,0.104413,-0.123446,-0.066153,-0.068510,1,0
799,20,-0.232294,-0.007097,-0.088321,-0.043558,-0.069210,1,1
789,20,-0.268377,-0.031529,-0.216452,-0.055413,-0.042589,1,1
785,20,-0.131601,-0.111365,-0.223519,-0.110281,-0.064745,0,1
777,20,-0.160238,0.075565,-0.105179,-0.195474,-0.053191,1,1
765,20,-0.393352,0.067590,-0.180298,-0.100364,-0.089348,1,0
796,20,-0.253106,0.014659,-0.132401,0.014642,-0.006077,1,1
781,20,-0.252355,0.007755,-0.186757,-0.106971,-0.075402,1,1
791,20,-0.243197,-0.073911,-0.183517,-0.113427,-0.181434,1,1
776,20,-0.306428,0.002498,-0.134382,-0.102870,-0.053925,1,1
771,20,-0.213383,0.060552,-0.118655,-0.121190,-0.098900,1,1
794,20,-0.175910,-0.048867,-0.109479,-0.148073,-0.180289,0,1
797,20,-0.285999,0.024509,-0.139768,-0.115862,-0.119800,1,1
787,20,-0.283060,0.035877,-0.213515,-0.090807,0.025848,1,1
778,20,-0.347219,0.075353,-0.126623,-0.107215,-0.086527,1,1
795,20,-0.309181,0.079983,-0.059883,-0.052323,-0.045671,1,1
761,20,-0.279250,0.062731,-0.144650,-0.044693,-0.004510,1,1
798,20,-0.230379,-0.004068,-0.128663,-0.186796,-0.088069,1,1
769,20,-0.289545,0.072660,-0.132325,-0.043751,-0.047966,1,1
767,20,-0.221040,0.088441,-0.080206,-0.030094,-0.036506,1,1
788,20,-0.251469,0.009911,-0.142909,-0.202577,-0.088241,1,1
766,20,-0.318379,0.046988,-0.195733,-0.073287,0.001631,1,1
775,20,-0.310165,0.106351,-0.052864,-0.105387,-0.099492,1,0
782,20,-0.318173,-0.001967,-0.201275,-0.144260,-0.074742,1,1
786,20,-0.225809,-0.062337,-0.240131,-0.060244,-0.094125,1,1
792,20,-0.314565,-0.065208,-0.080226,-0.037094,-0.041039,1,1
783,20,-0.249275,-0.025720,-0.081094,-0.136198,-0.162267,1,1
763,20,-0.256216,-0.029113,-0.115237,-0.041545,-0.069188,1,1
772,20,-0.318592,0.014949,-0.179878,-0.132152,-0.122790,1,1
784,20,-0.344317,-0.010327,-0.058036,-0.181183,-0.148310,1,1
820,21,-0.251894,-0.012905,-0.070394,-0.147506,-0.001340,1,1
807,21,-0.283732,0.094180,-0.088222,-0.063670,-0.042058,1,1
805,21,-0.358817,0.014973,-0.097495,-0.080187,-0.103811,1,1
839,21,-0.255821,-0.104600,-0.133960,-0.165908,-0.027391,0,1
836,21,-0.176812,0.021510,-0.173230,0.008202,-0.139396,1,1
818,21,-0.231142,0.016383,-0.084633,-0.052545,-0.143544,1,1
822,21,-0.179035,-0.028427,-0.052623,-0.098621,-0.085195,1,1
817,21,-0.227440,-0.015213,-0.127685,-0.087774,-0.050115,1,1
801,21,-0.287692,0.025956,-0.215567,-0.107949,-0.008079,1,1
808,21,-0.311329,-0.014778,-0.051865,0.022150,-0.023945,1,1
814,21,-0.294755,0.104608,-0.066164,-0.028629,-0.103912,1,1
809,21,-0.285561,0.147554,0.028663,-0.056686,-0.026318,1,0
806,21,-0.299935,-0.012194,-0.010109,-0.040914,0.041526,1,1
827,21,-0.238725,-0.008038,-0.155763,-0.089837,-0.016933,1,1
825,21,-0.229197,-0.015876,-0.137642,-0.090674,-0.077246,1,1
837,21,-0.241233,-0.003348,-0.147953,-0.115688,-0.096065,1,1
828,21,-0.249340,-0.078616,-0.186040,-0.152942,-0.137213,1,1
800,21,-0.260414,-0.058343,-0.144431,-0.035180,-0.061000,1,1
824,21,-0.140592,-0.094443,-0.072553,-0.025332,-0.128583,0,1
810,21,-0.317268,-0.065006,-0.099066,-0.184309,-0.043457,1,1
823,21,-0.098664,-0.002697,-0.140186,-0.160010,-0.100155,0,1
815,21,-0.253573,0.132427,-0.019250,-0.101971,-0.039072,1,0
832,21,-0.301671,0.012487,-0.157784,-0.101528,-0.080750,1,1
821,21,-0.208419,-0.007900,-0.084131,-0.226916,-0.120220,1,1
819,21,-0.273973,0.041536,-0.072236,-0.025723,-0.045126,1,1
811,21,-0.236990,0.032494,-0.041397,0.017787,-0.041892,1,1
830,21,-0.360336,-0.024041,-0.039007,-0.029197,-0.024599,1,1
826,21,-0.378515,-0.031410,-0.118352,-0.055072,-0.030134,0,1
838,21,-0.257700,0.038639,-0.071500,-0.049840,-0.097610,1,1
831,21,-0.265266,0.007865,-0.151132,-0.085429,-0.117900,1,1
812,21,-0.219739,0.044658,-0.105557,-0.119555,0.029142,1,1
803,21,-0.205599,0.074996,-0.010106,-0.081132,-0.083446,1,1
813,21,-0.306735,0.061343,-0.035737,-0.041026,-0.160330,1,1
804,21,-0.232571,0.053315,-0.091588,-0.004012,-0.032671,1,1
802,21,-0.228009,0.033094,-0.075526,-0.123306,-0.121835,1,1
835,21,-0.248670,0.017024,-0.142982,-0.073478,-0.177123,1,1
833,21,-0.238527,-0.057282,-0.173516,-0.098856,-0.053371,1,1
829,21,-0.235828,-0.051003,-0.121600,-0.122169,-0.022833,1,1
816,21,-0.313397,0.051996,-0.011795,-0.064981,-0.059072,1,1
834,21,-0.173290,-0.061220,-0.144551,-0.147211,-0.049032,0,1
875,22,-0.219227,-0.134288,-0.141420,-0.085421,-0.034735,0,1
848,22,-0.297110,-0.009104,-0.116030,-0.093909,-0.029527,1,1
861,22,-0.272085,0.021515,-0.147589,-0.079855,-0.148112,1,1
864,22,-0.311237,-0.003531,-0.099120,-0.150160,-0.132059,1,1
857,22,-0.213316,0.069479,-0.038215,-0.070025,-0.063675,1,1
873,22,-0.186814,-0.064436,-0.088212,-0.065641,-0.126041,1,1
851,22,-0.205556,0.078359,-0.058260,0.052151,-0.062453,1,1
842,22,-0.227527,0.093774,-0.130000,-0.056363,0.011440,1,1
846,22,-0.334598,0.167211,-0.089433,0.011511,-0.076243,1,0
841,22,-0.306969,0.025893,-0.089664,-0.160681,0.004658,1,1
874,22,-0.211871,-0.080438,-0.156884,-0.165120,-0.075298,1,1
879,22,-0.259504,0.048183,-0.009514,-0.165913,-0.031029,1,1
859,22,-0.170761,0.096360,-0.064697,-0.034320,0.029852,1,1
858,22,-0.280478,0.133070,-0.084574,-0.054396,-0.086782,1,0
862,22,-0.098516,-0.069276,-0.109283,-0.149017,-0.105330,0,1
856,22,-0.255094,0.106419,-0.091867,-0.043278,-0.035153,1,1
865,22,-0.152845,0.065532,-0.168834,-0.048178,-0.063605,1,1
852,22,-0.204486,0.075003,-0.052097,-0.073276,-0.014783,1,1
849,22,-0.264929,0.059188,-0.073200,-0.102234,-0.129705,1,1
840,22,-0.131622,0.137069,-0.127079,-0.072731,0.009278,1,0
853,22,-0.306548,0.042791,-0.063119,-0.027174,-0.063195,1,1
877,22,-0.277641,-0.021944,-0.159122,-0.198158,-0.092619,1,1
871,22,-0.320322,0.030797,-0.130431,-0.016835,-0.041815,1,1
869,22,-0.179523,-0.072793,0.011867,-0.066625,-0.066763,0,1
870,22,-0.266540,0.031432,-0.176380,-0.238273,-0.122558,1,1
860,22,-0.258147,0.003339,-0.123916,-0.022402,-0.184290,1,1
866,22,-0.198868,-0.023608,-0.128339,-0.108737,-0.111656,1,1
850,22,-0.295612,0.154196,-0.195917,-0.135041,-0.018569,1,0
868,22,-0.181154,-0.076246,-0.096939,-0.066746,-0.161911,0,1
876,22,-0.231269,-0.011498,-0.118306,-0.255088,-0.182480,1,1
878,22,-0.286155,0.010607,-0.058652,-0.089165,-0.115331,1,1
844,22,-0.228453,0.050927,-0.111999,-0.124494,0.029300,1,1
845,22,-0.234820,0.121253,-0.105151,-0.035641,0.022398,1,0
843,22,-0.196825,0.035950,-0.130041,-0.022889,-0.070290,1,1
855,22,-0.218480,-0.007750,-0.105042,-0.039230,-0.025187,1,1
872,22,-0.255759,-0.015196,-0.209363,-0.122730,-0.054513,1,1
867,22,-0.306234,0.007809,-0.086869,-0.073156,-0.053812,1,1
854,22,-0.178233,0.071793,-0.093839,-0.076977,-0.034391,1,1
863,22,-0.211547,-0.091754,-0.100904,-0.109831,-0.014636,0,1
847,22,-0.250401,0.060609,-0.055488,-0.124507,0.005843,1,1
919,23,-0.170078,-0.060153,-0.142188,-0.069588,-0.092836,1,1
902,23,-0.278251,-0.134198,-0.083845,-0.078984,-0.021488,0,1
899,23,-0.219504,0.091418,-0.031744,-0.095963,-0.061614,1,1
897,23,-0.204997,0.052846,-0.143902,-0.030851,-0.059200,1,1
917,23,-0.142441,0.001381,-0.123834,-0.166420,-0.096071,1,1
893,23,-0.268444,0.032556,-0.151773,0.022713,-0.033026,1,1
907,23,-0.227267,-0.081290,-0.127631,-0.010281,-0.068219,1,1
896,23,-0.147849,0.032966,-0.144361,-0.135850,0.014508,1,1
886,23,-0.219674,0.042126,-0.111899,-0.061309,-0.143492,1,1
883,23,-0.219686,0.066085,-0.082778,-0.004471,-0.051296,1,1
888,23,-0.277304,0.139766,-0.038158,-0.069259,-0.056879,1,0
916,23,-0.252302,-0.002535,-0.230581,-0.131566,-0.132670,1,1
914,23,-0.204024,-0.042464,-0.141298,-0.103161,-0.030588,1,1
898,23,-0.199920,0.077993,-0.057395,-0.025794,-0.043821,1,1
913,23,-0.145330,0.024210,-0.074029,-0.048225,0.010933,1,1
880,23,-0.243390,0.064026,-0.035773,-0.043449,-0.087188,1,1
882,23,-0.142963,0.081879,-0.075329,-0.014262,-0.048476,1,1
906,23,-0.160023,-0.039615,-0.094573,-0.172134,-0.048500,1,1
918,23,-0.232968,0.033134,-0.132093,-0.156989,-0.038224,1,1
904,23,-0.146019,0.076831,-0.129236,-0.112970,-0.088782,1,1
905,23,-0.169321,-0.073732,-0.003788,-0.151870,-0.100480,0,1
901,23,-0.198643,-0.004318,-0.027605,-0.062634,-0.009616,1,1
890,23,-0.222562,0.032093,-0.075326,-0.101072,0.016276,1,1
911,23,-0.287852,-0.026410,-0.117213,-0.027101,-0.058675,1,1
910,23,-0.309465,0.090874,-0.185811,-0.101493,-0.053789,1,1
909,23,-0.200566,-0.084531,-0.105367,-0.030387,-0.048831,0,1
908,23,-0.265094,0.065189,-0.059530,-0.152486,-0.117196,1,1
895,23,-0.233098,0.043593,-0.103311,-0.097556,-0.003969,1,1
903,23,-0.171107,-0.103122,-0.159612,-0.227364,-0.051858,0,1
891,23,-0.268738,0.002539,-0.122424,-0.056658,0.006280,1,1
894,23,-0.280345,0.152628,-0.075908,-0.017813,-0.030391,1,0
881,23,-0.246007,0.069766,-0.096633,0.004320,-0.003563,1,1
889,23,-0.241256,0.111965,0.031116,-0.153118,-0.027611,1,1
915,23,-0.154822,-0.010634,-0.140753,-0.128266,-0.017433,1,1
885,23,-0.183877,0.050813,-0.138352,-0.068016,-0.077294,1,1
887,23,-0.252665,0.046269,-0.070298,-0.075409,-0.082740,1,1
892,23,-0.246410,0.036299,-0.083923,-0.087361,0.037039,1,1
912,23,-0.293447,-0.076358,-0.101589,-0.103545,-0.051891,1,1
900,23,-0.210034,-0.032704,-0.142406,-0.086689,-0.050342,1,1
884,23,-0.300136,0.062568,-0.116468,-0.005855,-0.011950,1,1
953,24,-0.254025,0.019721,-0.127941,-0.064806,0.008795,1,1
934,24,-0.239936,0.097016,-0.125337,-0.089095,-0.063774,1,1
959,24,-0.207054,-0.016605,-0.157666,-0.072014,-0.020237,1,1
941,24,-0.180982,-0.021145,-0.161859,-0.111708,-0.089563,1,1
920,24,-0.143172,-0.028083,-0.155641,-0.165373,-0.037538,1,1
922,24,-0.222275,0.042811,-0.138385,-0.032102,-0.069145,1,1
952,24,-0.252480,-0.039662,-0.079302,-0.027044,-0.162970,1,1
954,24,-0.090790,-0.015170,-0.192162,-0.045289,-0.028511,0,1
926,24,-0.346424,0.090272,-0.004809,0.028399,-0.119669,1,0
940,24,-0.190497,-0.036484,-0.103350,-0.085879,-0.116449,1,1
955,24,-0.228417,-0.005675,-0.199020,-0.057141,-0.065929,1,1
950,24,-0.159668,0.065198,-0.097799,-0.070219,-0.002818,1,1
943,24,-0.171417,-0.003664,-0.109896,-0.106048,-0.063963,1,1
958,24,-0.116856,-0.023876,-0.188298,-0.113553,0.008303,1,1
921,24,-0.236190,0.088576,-0.067242,-0.035075,-0.005378,1,1
956,24,-0.211443,-0.018046,-0.030965,-0.106945,-0.058745,1,1
939,24,-0.257005,0.001434,-0.140010,-0.128757,0.006187,1,1
942,24,-0.140226,-0.063991,-0.103897,-0.083638,0.014213,0,1
951,24,-0.057663,0.036784,-0.104299,-0.133284,-0.105251,0,1
933,24,-0.258047,0.063361,-0.110506,-0.023020,0.058865,1,1
945,24,-0.214432,0.049164,-0.077415,-0.000357,-0.099376,1,1
923,24,-0.149151,0.103483,-0.048567,-0.029834,-0.063541,1,1
930,24,-0.169982,0.125674,-0.079494,-0.062895,-0.066131,1,0
928,24,-0.168874,0.004620,-0.085314,-0.125591,-0.080639,1,1
957,24,-0.291649,-0.132998,-0.153475,-0.133576,-0.061223,0,1
947,24,-0.182602,-0.062190,-0.170005,0.009646,-0.066329,1,1
949,24,-0.176184,-0.036042,-0.108163,-0.140447,-0.076687,1,1
929,24,-0.099005,0.082694,-0.036326,-0.020376,0.003636,1,1
924,24,-0.201908,0.053461,-0.196040,-0.075033,0.011700,1,1
935,24,-0.112606,0.102207,-0.067044,-0.004610,0.044874,1,0
931,24,-0.237064,0.157431,-0.063418,-0.148547,-0.031567,1,0
936,24,-0.240203,0.055499,-0.084910,-0.045306,-0.070394,1,1
925,24,-0.271203,0.018796,0.032646,-0.094863,-0.008032,1,1
944,24,-0.161969,0.008134,-0.056730,-0.156551,-0.027094,1,1
927,24,-0.276953,0.116417,-0.073942,-0.000597,-0.045917,1,0
938,24,-0.235703,0.118832,-0.119854,-0.008429,0.000313,1,0
932,24,-0.175514,0.047247,-0.101758,-0.073867,-0.073286,1,1
937,24,-0.175332,0.098992,-0.010237,-0.045419,-0.099899,1,1
946,24,-0.207415,0.003998,-0.117596,-0.056959,-0.049141,1,1
948,24,-0.286417,-0.072100,0.031141,-0.133895,-0.119827,1,1
990,25,-0.179791,-0.086644,-0.134212,-0.092478,0.025691,0,1
992,25,-0.166312,-0.083970,-0.062587,-0.137718,0.067900,0,1
981,25,-0.211260,-0.089325,-0.055780,-0.133224,-0.060296,0,1
987,25,-0.179615,-0.076463,-0.148019,-0.053859,-0.132743,1,1
960,25,-0.158000,0.060094,-0.101487,-0.053518,0.004764,1,1
974,25,-0.186270,0.100310,-0.104553,-0.045084,-0.153686,1,1
979,25,-0.223216,-0.002687,-0.041135,0.008579,0.103218,1,1
999,25,-0.146005,0.043857,-0.152316,-0.163062,-0.070357,1,1
986,25,-0.147679,-0.015770,-0.193349,-0.087702,-0.060850,1,1
965,25,-0.253370,0.136428,-0.110700,-0.178476,0.046384,1,0
975,25,-0.151012,0.137937,-0.069474,-0.059699,-0.106723,1,0
985,25,-0.129884,-0.084527,-0.124832,-0.063592,-0.029501,0,1
971,25,-0.179621,0.050400,-0.074473,-0.038432,-0.060971,1,1
996,25,-0.191450,-0.047378,-0.098134,-0.158132,-0.074172,1,1
964,25,-0.229356,0.019260,-0.132665,0.062132,-0.046749,1,1
998,25,-0.240322,-0.049606,-0.096848,-0.191967,-0.009007,1,1
982,25,-0.221212,-0.047685,-0.074407,-0.071451,-0.091850,1,1
997,25,-0.250863,0.012278,-0.072198,-0.133403,-0.053557,1,1
969,25,-0.251847,0.062491,-0.045679,0.007336,-0.039633,1,1
967,25,-0.223233,0.091464,-0.070096,-0.034054,-0.061712,1,1
980,25,-0.207222,-0.051019,-0.037342,-0.122698,-0.095981,1,1
973,25,-0.076434,-0.004970,-0.103713,0.014575,-0.003900,1,1
993,25,-0.296055,-0.046862,-0.143270,-0.106446,0.061224,1,1
961,25,-0.210729,0.102266,-0.118966,-0.108376,-0.034103,1,1
972,25,-0.188470,0.129103,-0.053498,-0.027003,-0.108800,1,0
962,25,-0.277330,0.026701,-0.261896,-0.134260,-0.058337,1,1
991,25,-0.149478,-0.071547,-0.097264,-0.100469,-0.048852,0,1
976,25,-0.240909,0.038776,-0.172355,-0.058555,0.069312,1,1
970,25,-0.234436,0.071620,-0.105912,-0.069620,-0.062122,1,1
966,25,-0.261780,0.114018,-0.101620,0.008192,0.014149,1,0
995,25,-0.234770,-0.035142,-0.150372,-0.111970,0.002490,1,1
994,25,-0.188127,0.008263,-0.065866,-0.144967,-0.094274,1,1
984,25,-0.225972,-0.066794,-0.075718,-0.068859,-0.150902,1,1
968,25,-0.243339,0.139158,-0.159748,-0.033992,-0.015191,1,0
978,25,-0.256086,0.110356,-0.090043,-0.007198,-0.035617,1,0
963,25,-0.193139,0.027667,-0.028464,-0.132869,-0.092623,1,1
988,25,-0.190203,-0.008385,-0.114135,-0.092889,-0.063165,1,1
989,25,-0.124541,-0.070519,-0.095508,-0.110475,0.033104,0,1
983,25,-0.170296,-0.108421,-0.040300,-0.092242,-0.100860,0,1
977,25,-0.168787,0.097408,-0.075576,-0.065467,-0.033711,1,1
1030,26,-0.125729,-0.030035,-0.130878,-0.105206,-0.094634,1,1
1031,26,-0.097695,-0.064422,-0.050288,-0.075674,-0.035714,0,1
1024,26,-0.174101,-0.141843,-0.195566,-0.013812,0.008455,0,1
1012,26,-0.271607,0.125643,-0.052967,-0.041034,0.009356,1,0
1004,26,-0.223055,0.112509,-0.176391,-0.006487,0.024267,1,1
1003,26,-0.183116,0.070684,-0.039646,-0.074029,-0.035608,1,1
1015,26,-0.152756,0.084504,-0.076704,-0.083230,-0.058250,1,1
1017,26,-0.257838,0.033716,-0.033275,-0.080120,-0.099503,1,1
1023,26,-0.111319,-0.005455,-0.108459,-0.047337,-0.059191,1,1
1025,26,-0.161731,-0.055685,-0.069174,-0.106262,-0.091165,1,1
1010,26,-0.199292,0.053298,-0.145026,-0.086147,0.020722,1,1
1036,26,-0.115250,-0.058246,-0.140446,-0.019635,-0.052548,0,1
1034,26,-0.148786,0.034730,0.011346,-0.070228,-0.088613,1,1
1021,26,-0.203797,-0.017760,-0.023764,-0.106955,-0.042975,1,1
1032,26,-0.138366,-0.020910,-0.138073,-0.124421,0.006650,1,1
1005,26,-0.296207,0.109717,-0.086385,0.019375,-0.046584,1,0
1027,26,-0.216513,-0.055883,-0.093114,-0.113269,-0.030125,1,1
1016,26,-0.131479,-0.063129,-0.031374,-0.035110,-0.051014,1,1
1002,26,-0.148118,0.151293,-0.144229,-0.029859,-0.047665,1,0
1033,26,-0.192845,-0.114610,-0.124331,-0.086564,-0.034114,0,1
1026,26,-0.158333,0.006504,-0.104522,-0.109877,-0.065676,1,1
1022,26,-0.288524,-0.006479,-0.157889,-0.119867,-0.074175,1,1
1006,26,-0.149258,0.018235,-0.078719,0.016274,-0.072946,1,1
1019,26,-0.198108,0.001702,-0.118374,-0.137720,-0.018977,1,1
1029,26,-0.227770,-0.017590,-0.131301,-0.091414,-0.101996,1,1
1013,26,-0.329840,0.065014,-0.136900,-0.051513,-0.009501,1,0
1020,26,-0.272111,-0.051908,-0.093967,-0.129841,-0.083229,1,1
1000,26,-0.170250,0.075880,-0.057778,-0.025735,-0.026159,1,1
1008,26,-0.210681,0.021399,0.039747,-0.026714,-0.001558,1,1
1011,26,-0.226134,-0.013125,-0.001276,0.001400,-0.143649,1,1
1037,26,-0.209700,-0.049222,-0.124299,-0.043606,-0.118801,1,1
1018,26,-0.188279,0.015976,0.019179,-0.067914,-0.059973,1,1
1039,26,-0.152231,-0.045927,-0.155759,-0.037500,-0.043623,1,1
1035,26,-0.229916,-0.061937,-0.049620,-0.139057,-0.084792,1,1
1009,26,-0.290654,-0.001621,-0.078198,-0.051249,-0.034046,1,1
1014,26,-0.188219,0.104740,-0.082529,-0.001085,0.044070,1,1
1028,26,-0.157400,-0.006503,-0.164992,-0.171025,-0.054140,1,1
1001,26,-0.288210,0.034466,-0.069626,-0.136754,-0.041467,1,1
1038,26,-0.119693,-0.094403,-0.114945,-0.069525,-0.030169,0,1
1007,26,-0.185890,0.006505,-0.007331,-0.093969,-0.033992,1,1
1054,27,-0.226278,0.051869,-0.126813,0.015075,-0.026615,1,1
1055,27,-0.127080,0.072365,-0.090000,-0.069387,0.000856,1,1
1052,27,-0.160683,0.120595,-0.075199,-0.118304,-0.006340,1,0
1044,27,-0.157785,0.048652,-0.144990,-0.066827,-0.001134,1,1
1059,27,-0.181433,0.035379,-0.111263,-0.213011,-0.050978,1,1
1051,27,-0.098852,0.107454,-0.065309,0.015695,0.036551,1,0
1046,27,-0.169629,0.099205,-0.088486,-0.135243,-0.020825,1,1
1049,27,-0.155729,0.067348,0.016963,-0.037454,-0.038411,1,1
1047,27,-0.258540,0.090026,-0.060281,-0.002276,0.028207,1,0
1061,27,-0.179948,0.028952,-0.082038,-0.138628,-0.109748,1,1
1073,27,-0.213890,0.027592,0.003438,-0.119231,-0.036578,1,1
1056,27,-0.222280,-0.110971,0.050025,-0.060448,-0.016665,1,1
1040,27,-0.238823,0.091813,0.018619,-0.039915,0.003877,1,1
1072,27,-0.238131,-0.006506,-0.025161,0.013589,-0.039702,1,1
1076,27,-0.141603,-0.095437,-0.094580,-0.138290,-0.144986,0,1
1057,27,-0.188433,-0.012412,0.024596,0.018469,-0.077347,1,1
1043,27,-0.133025,0.099509,-0.024391,-0.026029,-0.049449,1,1
1058,27,-0.202569,0.213161,-0.114309,0.024662,-0.015951,1,0
1064,27,-0.043099,-0.058841,-0.197150,-0.069258,-0.084101,0,1
1041,27,-0.229577,0.088457,-0.185265,0.034509,-0.073925,1,1
1074,27,-0.073666,-0.039939,-0.143337,-0.050724,-0.085519,0,1
1042,27,-0.218005,0.072971,-0.135252,-0.091496,-0.009118,1,1
1062,27,-0.076433,-0.097129,-0.160946,-0.059401,-0.025873,0,1
1075,27,-0.142725,-0.017730,-0.079780,-0.061932,-0.060791,1,1
1067,27,-0.200265,-0.044972,-0.087522,-0.062159,-0.107120,1,1
1063,27,-0.089631,-0.015517,-0.083446,-0.111841,-0.068858,1,1
1066,27,-0.165373,0.010431,-0.048277,-0.040337,-0.074351,1,1
1060,27,-0.211686,-0.006049,-0.080057,-0.101494,-0.043971,1,1
1070,27,-0.117351,0.021027,-0.033980,-0.038400,-0.036301,1,1
1065,27,-0.099624,-0.023111,-0.057196,-0.035824,-0.066963,1,1
1068,27,-0.118515,-0.055324,-0.142707,-0.106440,0.000779,1,1
1078,27,-0.155907,-0.142882,-0.083326,-0.108139,0.056201,0,1
1071,27,-0.132189,-0.088042,-0.026741,-0.045080,-0.049297,0,1
1045,27,-0.157341,0.103044,0.009328,-0.131169,-0.006617,1,1
1053,27,-0.171596,0.086084,-0.119960,0.043727,0.005310,1,1
1077,27,-0.131439,0.032110,-0.149277,-0.096392,-0.080920,1,1
1069,27,-0.158622,0.032947,-0.193117,-0.070188,-0.091889,1,1
1079,27,-0.204479,-0.001452,-0.047207,-0.038135,-0.087036,1,1
1048,27,-0.171522,0.127348,-0.042728,-0.055633,-0.035666,1,0
1050,27,-0.142994,0.014051,-0.123455,0.078308,0.002508,1,1
1095,28,-0.193166,0.119688,-0.068934,-0.049532,0.027139,1,0
1109,28,-0.139591,-0.097333,-0.166204,-0.128092,-0.054012,0,1
1103,28,-0.075430,0.042693,-0.106574,-0.107721,-0.122933,1,1
1081,28,-0.260420,0.041558,-0.061201,-0.082114,0.026026,1,1
1116,28,-0.126860,-0.027455,-0.046571,-0.054141,-0.015996,1,1
1107,28,-0.120114,0.067754,-0.107686,-0.073279,-0.044824,1,1
1096,28,-0.183565,0.133683,-0.178052,-0.089191,0.008827,1,0
1091,28,-0.196242,0.125696,-0.037116,-0.036912,0.038563,1,0
1099,28,-0.174081,0.112449,-0.074741,-0.033965,0.051356,1,1
1088,28,-0.154994,-0.004003,-0.029751,-0.017021,-0.007975,1,1
1094,28,-0.195067,0.040743,-0.062286,-0.087136,-0.057393,1,1
1086,28,-0.160168,0.084624,-0.056464,-0.053196,0.014384,1,1
1080,28,-0.220290,0.042411,0.054473,-0.026949,0.072315,1,1
1100,28,-0.238609,-0.035406,-0.099172,-0.050983,0.025657,1,1
1112,28,-0.166210,-0.074275,-0.088735,-0.052366,0.003262,1,1
1115,28,-0.090131,-0.070047,-0.131622,-0.071204,-0.038178,0,1
1101,28,-0.234975,-0.073383,-0.079359,-0.077925,-0.018824,1,1
1090,28,-0.187469,0.034615,-0.035038,-0.036779,0.073246,1,1
1117,28,-0.171221,-0.059624,-0.073100,-0.050526,-0.043760,1,1
1114,28,-0.210833,0.031350,-0.038568,-0.086003,-0.090493,1,1
1110,28,-0.148861,-0.056073,-0.094975,-0.063155,-0.056839,1,1
1087,28,-0.112922,0.058822,-0.007746,-0.075546,0.030932,1,1
1092,28,-0.188218,0.100819,-0.100389,-0.061967,-0.059032,1,1
1111,28,-0.118252,0.033416,-0.083185,-0.068182,-0.008990,1,1
1119,28,-0.228104,-0.013176,-0.006593,-0.079266,-0.092540,1,1
1084,28,-0.151578,0.014514,-0.034268,-0.130357,0.060542,1,1
1082,28,-0.054736,0.081795,-0.109300,-0.055460,-0.074893,1,1
1104,28,-0.169420,-0.087719,-0.158482,-0.127166,-0.082210,0,1
1085,28,-0.198083,-0.023717,-0.114047,0.051944,-0.019350,1,1
1106,28,-0.070050,0.006635,-0.134387,-0.099141,-0.022617,1,1
1093,28,-0.150813,0.084100,-0.033586,-0.014249,-0.011066,1,1
1102,28,-0.117706,0.016452,-0.016183,-0.140466,0.010096,1,1
1098,28,-0.131831,0.041206,-0.128627,-0.037460,0.026190,1,1
1089,28,-0.296052,0.083809,-0.074330,0.020505,-0.034335,1,0
1108,28,-0.123431,0.040858,-0.128036,-0.100682,-0.116569,1,1
1083,28,-0.207030,0.044668,-0.048230,-0.020234,0.007938,1,1
1113,28,-0.138337,0.016931,-0.034822,-0.154442,-0.021711,1,1
1118,28,-0.111790,0.079650,-0.037945,-0.148984,-0.050175,1,1
1097,28,-0.198059,-0.009570,-0.086273,0.048066,-0.042104,1,1
1105,28,-0.100947,-0.026554,-0.101019,-0.043841,-0.037053,1,1
1141,29,-0.098273,-0.063000,-0.029839,0.007393,-0.075089,0,1
1128,29,-0.126166,0.021781,-0.053034,-0.128033,0.057055,1,1
1159,29,-0.123452,-0.039737,-0.097581,-0.062831,-0.033146,1,1
1123,29,-0.179964,0.143823,-0.074342,-0.112267,0.047071,1,0
1152,29,-0.188893,-0.050415,-0.047335,-0.048829,-0.017085,1,1
1129,29,-0.273560,0.067272,-0.106425,0.061420,0.048059,1,0
1143,29,-0.118229,-0.078410,-0.040107,-0.001649,0.026223,0,1
1157,29,-0.058576,-0.065789,-0.083076,-0.059143,0.005006,0,1
1149,29,-0.141674,-0.082502,-0.065651,-0.121578,-0.079878,0,1
1130,29,-0.181942,0.146321,-0.021324,-0.022870,-0.017832,1,0
1134,29,-0.193393,0.087642,-0.067356,0.011999,-0.072948,1,1
1153,29,-0.059707,-0.026288,-0.155564,-0.049472,-0.151978,0,1
1158,29,-0.255845,-0.104494,-0.065118,-0.100230,0.015161,0,1
1154,29,-0.169712,-0.041388,-0.104423,0.003611,-0.075194,1,1
1121,29,-0.295648,0.109200,-0.099286,-0.028106,0.061858,1,0
1145,29,-0.197998,-0.092770,-0.045673,-0.138643,-0.113705,0,1
1151,29,-0.145741,0.006815,-0.117850,0.012563,-0.157243,1,1
1137,29,-0.189066,0.120474,-0.070796,-0.034164,0.009512,1,0
1150,29,-0.181815,-0.066960,-0.137530,-0.019251,-0.016090,1,1
1122,29,-0.216327,0.046870,-0.153839,-0.023314,-0.023093,1,1
1138,29,-0.171663,0.055041,-0.068294,-0.066163,0.009650,1,1
1120,29,-0.109445,0.069290,-0.058780,-0.052690,0.010613,1,1
1148,29,-0.157037,-0.069197,-0.013095,0.046869,-0.064330,1,1
1126,29,-0.098991,-0.012217,-0.132269,-0.003272,-0.039833,1,1
1144,29,-0.125205,-0.030006,-0.129423,-0.053312,0.074286,1,1
1147,29,-0.118419,0.059637,-0.067358,-0.049380,-0.002624,1,1
1140,29,-0.132609,-0.132607,-0.081702,0.002335,-0.109494,0,1
1142,29,-0.206503,-0.076401,-0.197953,-0.087243,-0.021425,1,1
1133,29,-0.136892,0.097915,-0.083110,-0.052700,0.115958,1,1
1125,29,-0.188095,0.105168,-0.040051,-0.091159,-0.083210,1,1
1124,29,-0.104223,0.051284,-0.021102,-0.076329,-0.026747,1,1
1155,29,-0.132597,-0.072629,-0.156673,0.018549,-0.083103,1,1
1135,29,-0.152690,0.092666,-0.101412,-0.001312,-0.017810,1,1
1131,29,-0.193957,0.047287,-0.066558,-0.026151,-0.062946,1,1
1139,29,-0.167415,0.091489,-0.024914,-0.041898,-0.038042,1,1
1136,29,-0.209172,-0.068603,-0.056378,0.037583,0.003799,1,1
1127,29,-0.193979,-0.011586,-0.053360,-0.059393,0.020987,1,1
1146,29,-0.164335,-0.053283,-0.037306,-0.034923,-0.069583,1,1
1132,29,-0.193965,0.102907,-0.079128,-0.064237,-0.077746,1,1
1156,29,-0.206525,-0.066756,-0.087074,-0.118973,-0.006513,1,1
1161,30,-0.080577,0.033288,-0.078885,-0.076472,0.035672,1,1
1181,30,-0.169053,-0.068197,-0.037543,-0.098212,0.077476,1,1
1166,30,-0.169088,0.065743,-0.097678,0.006540,-0.062872,1,1
1195,30,-0.157537,-0.076762,-0.123341,-0.102644,-0.121839,1,1
1162,30,-0.078809,0.038888,-0.083590,-0.027153,0.009279,1,1
1160,30,-0.201618,-0.026694,-0.081423,0.051273,0.060025,1,1
1173,30,-0.070305,0.019465,0.026163,0.028253,0.020889,1,1
1163,30,-0.200700,0.113604,-0.051232,-0.035583,0.040453,1,0
1164,30,-0.154823,0.111624,-0.111829,0.037584,-0.044190,1,1
1193,30,-0.194983,0.023852,-0.120946,-0.132264,-0.027347,1,1
1183,30,-0.136812,-0.040827,-0.170339,-0.024481,0.062850,1,1
1170,30,-0.133004,0.105500,-0.048279,-0.030513,0.092468,1,1
1185,30,-0.151302,-0.080359,-0.099703,-0.068292,-0.055773,1,1
1197,30,-0.062419,0.018938,-0.116740,0.002726,0.036402,1,1
1186,30,-0.270777,-0.077381,-0.083943,0.011610,-0.104268,0,1
1192,30,-0.142120,-0.040497,-0.119786,-0.123674,-0.014536,1,1
1167,30,-0.148624,0.074715,-0.087834,0.054434,-0.066680,1,1
1168,30,-0.167030,0.092679,0.003949,0.096911,0.001562,1,1
1179,30,-0.132218,0.150180,-0.006286,0.015337,0.000825,1,0
1190,30,-0.188713,0.023979,-0.099437,-0.046304,-0.000420,1,1
1187,30,-0.237559,0.035202,-0.061064,-0.068178,0.014960,1,1
1178,30,-0.164786,0.125441,0.000841,-0.036707,-0.053319,1,0
1189,30,-0.048101,0.028772,-0.130322,-0.002578,-0.005447,1,1
1194,30,-0.120346,0.054883,-0.047652,-0.005500,-0.065299,1,1
1177,30,-0.160601,-0.061981,-0.049150,-0.023240,0.029338,1,1
1174,30,-0.083682,0.116008,-0.087512,0.022498,-0.038585,1,0
1196,30,-0.144815,-0.063609,-0.065832,-0.034357,-0.019397,1,1
1199,30,-0.153058,-0.086698,-0.075210,-0.097931,-0.076720,1,1
1165,30,-0.176895,0.043678,-0.041620,-0.059981,0.034175,1,1
1180,30,-0.174144,0.000990,-0.049494,-0.071663,-0.071368,1,1
1169,30,-0.251143,0.054021,0.019606,-0.021740,-0.010715,1,1
1188,30,-0.127468,-0.062393,-0.137904,-0.010749,0.035916,1,1
1175,30,-0.193329,0.043724,-0.047005,0.006387,0.090421,1,1
1198,30,-0.137679,-0.046270,-0.089926,-0.167418,0.031713,1,1
1182,30,-0.145490,-0.026281,-0.091114,-0.033301,-0.116962,1,1
1184,30,-0.063153,0.033478,-0.047327,-0.022199,-0.055684,1,1
1171,30,-0.147199,0.104612,-0.055322,0.057498,-0.012084,1,1
1191,30,-0.190497,0.055456,-0.079301,0.007574,-0.066205,1,1
1176,30,-0.155202,0.099183,-0.103119,-0.043932,0.037246,1,1
1172,30,-0.116332,0.047105,0.026688,-0.035450,0.023958,1,1
1224,31,-0.207041,-0.130148,-0.108373,-0.103262,-0.056473,0,1
1214,31,-0.123585,0.088421,-0.065224,0.069127,-0.003198,1,1
1222,31,-0.087630,0.042666,-0.035771,-0.035158,-0.018661,1,1
1237,31,-0.133674,-0.006749,-0.058561,-0.043891,-0.098896,1,1
1210,31,-0.219053,0.058881,-0.103937,-0.002581,-0.074887,1,1
1217,31,-0.236261,0.132631,0.005961,0.015083,0.004133,1,0
1220,31,-0.161979,-0.094000,-0.183206,0.013314,-0.039463,0,1
1201,31,-0.144064,0.050844,-0.125408,0.035687,-0.079555,1,1
1206,31,-0.131592,0.071241,-0.071875,-0.006846,-0.049080,1,1
1225,31,-0.056518,-0.096367,-0.144961,-0.053209,-0.019986,0,1
1236,31,-0.123469,-0.009963,0.026483,-0.076675,0.035070,1,1
1221,31,-0.174192,-0.054927,-0.124770,-0.044030,-0.166702,1,1
1228,31,-0.078946,-0.034773,-0.108650,-0.095207,-0.046128,1,1
1230,31,-0.141611,-0.105667,-0.082497,-0.067416,-0.008363,0,1
1202,31,-0.151179,0.030334,-0.083679,-0.023453,0.087758,1,1
1238,31,-0.121619,0.016983,-0.147034,-0.045455,-0.034640,1,1
1234,31,-0.208205,-0.026705,-0.078695,-0.023373,-0.050752,1,1
1233,31,-0.134614,-0.035415,-0.132604,-0.134676,0.078844,1,1
1212,31,-0.143776,0.020616,-0.080259,0.037958,-0.001801,1,1
1218,31,-0.178923,0.054384,-0.097680,0.041719,-0.056486,1,1
1213,31,-0.218690,0.158095,-0.053889,-0.031415,0.044504,1,0
1205,31,-0.209573,0.070761,-0.066078,-0.025699,0.055298,1,1
1215,31,-0.206615,0.031399,0.011305,-0.035779,0.029084,1,1
1216,31,-0.124342,0.117330,-0.060885,-0.003163,-0.010934,1,1
1207,31,-0.068920,0.169097,0.053453,-0.044902,-0.053561,1,0
1209,31,-0.131539,-0.001350,0.030340,-0.052794,0.007865,1,1
1208,31,-0.134014,0.075520,-0.064461,-0.082911,0.042259,1,1
1223,31,-0.176256,-0.134741,-0.060715,-0.086763,-0.030251,0,1
1227,31,-0.123610,-0.016187,-0.143695,-0.085330,0.087591,1,1
1200,31,-0.062658,0.081625,-0.040053,-0.004304,0.061208,1,1
1235,31,-0.149413,-0.093257,-0.051517,-0.064051,-0.083962,0,1
1211,31,-0.137377,0.031585,-0.054520,0.030125,-0.041344,1,1
1203,31,-0.171220,0.061799,0.063682,-0.093342,-0.028761,1,1
1219,31,-0.233211,0.044637,-0.009751,-0.049412,-0.005521,1,1
1239,31,-0.083841,-0.094211,-0.120495,-0.098558,-0.064729,0,1
1231,31,-0.139897,0.033517,-0.108937,-0.068164,0.054407,1,1
1204,31,-0.183353,0.083657,-0.123737,-0.036175,-0.037288,1,1
1226,31,-0.023982,-0.016811,-0.093635,-0.016534,0.000339,1,1
1232,31,-0.171678,0.005563,0.024546,0.048329,-0.001104,1,1
1229,31,-0.153951,-0.091886,-0.092460,-0.025886,-0.103231,0,1
1267,32,-0.039505,-0.062574,-0.062916,-0.024325,-0.110736,0,1
1266,32,-0.143608,0.025015,-0.121556,-0.023069,0.061437,1,1
1271,32,-0.098409,0.006921,-0.055969,-0.149330,-0.049040,1,1
1243,32,-0.091596,0.094905,-0.072035,-0.051239,-0.068432,1,1
1265,32,-0.175244,0.015471,-0.078920,-0.114784,0.079962,1,1
1258,32,-0.120938,0.132193,-0.073422,0.015240,-0.078535,1,0
1247,32,-0.127391,0.081590,-0.004573,0.021236,-0.042973,1,1
1279,32,-0.144477,-0.031802,-0.144441,0.005064,-0.145196,1,1
1240,32,-0.158624,0.000421,-0.060486,-0.016414,-0.033395,1,1
1276,32,-0.215485,0.072835,-0.026317,-0.082233,-0.035779,1,1
1253,32,-0.161733,0.086127,-0.033890,0.067725,0.090683,1,1
1252,32,-0.048848,0.068543,-0.113923,-0.020275,0.003198,1,1
1278,32,-0.114870,-0.059634,-0.139908,-0.082768,-0.018256,1,1
1251,32,-0.065398,0.049263,-0.042398,-0.050902,-0.067364,1,1
1246,32,-0.098456,0.081527,-0.004908,-0.044342,-0.049776,1,1
1263,32,-0.084631,-0.099576,-0.090847,-0.119883,-0.040984,0,1
1242,32,-0.126753,0.128093,-0.052092,0.002056,-0.082317,1,0
1249,32,-0.092982,0.019174,0.029568,-0.056571,0.028540,1,1
1270,32,-0.051553,-0.092141,-0.093838,-0.063836,0.004211,0,1
1254,32,-0.082749,0.070566,-0.066661,0.013763,0.019133,1,1
1257,32,-0.099148,0.121865,0.052224,-0.001527,0.023767,1,0
1268,32,-0.112718,0.009535,-0.000139,-0.119804,-0.045352,1,1
1248,32,-0.152814,-0.007937,-0.009032,0.029551,-0.005155,1,1
1273,32,-0.176587,-0.070578,-0.111318,0.058220,-0.047953,1,1
1274,32,-0.106505,-0.092157,-0.117039,-0.068837,-0.005336,0,1
1241,32,-0.234532,0.067826,-0.025555,-0.086195,0.032613,1,1
1255,32,-0.123456,0.048163,-0.095311,-0.004454,-0.015791,1,1
1260,32,-0.150595,-0.148779,-0.101273,-0.049727,0.018679,0,1
1264,32,-0.101901,0.051800,-0.070595,-0.043916,-0.041663,1,1
1244,32,-0.168457,0.057132,-0.122738,-0.038283,0.106194,1,1
1277,32,-0.113118,0.022382,-0.064165,-0.070262,-0.049856,1,1
1250,32,-0.191005,0.101192,-0.047655,0.019918,-0.048912,1,1
1256,32,-0.201855,-0.021657,0.052318,-0.030472,0.017184,1,1
1245,32,-0.084898,0.041095,-0.107926,-0.069890,0.057025,1,1
1262,32,-0.152374,-0.049872,-0.097144,-0.089777,0.013645,1,1
1269,32,-0.110688,-0.039379,-0.083744,-0.091687,-0.013984,1,1
1272,32,-0.239963,-0.039905,-0.077936,-0.033271,-0.074308,1,1
1259,32,-0.226728,0.009614,-0.069046,-0.004898,0.004074,1,1
1275,32,-0.072733,0.016360,0.019158,-0.112070,0.037421,1,1
1261,32,-0.191231,-0.063745,-0.058054,-0.134565,0.017622,1,1
1316,33,-0.013751,-0.041266,-0.080331,-0.114427,-0.045164,0,1
1289,33,-0.100185,0.094788,0.003259,0.009153,0.044457,1,1
1297,33,-0.172196,0.036272,-0.032636,-0.022441,0.053104,1,1
1318,33,-0.124034,0.030385,-0.077398,-0.003752,0.021680,1,1
1294,33,-0.111151,0.069059,-0.040993,-0.040058,0.058278,1,1
1305,33,-0.069394,-0.038948,-0.170756,0.033937,0.007875,1,1
1293,33,-0.088709,0.188459,0.014206,-0.015276,0.001978,1,0
1319,33,-0.156238,0.041189,-0.078919,-0.096476,-0.038924,1,1
1314,33,-0.119208,-0.058365,-0.124717,-0.029219,0.034940,1,1
1311,33,-0.206976,-0.087394,-0.046326,-0.027342,0.001116,0,1
1281,33,-0.260281,0.014989,0.011094,-0.063018,0.105223,1,0
1296,33,-0.193307,-0.003124,-0.085685,-0.000147,0.077557,1,1
1291,33,-0.182249,-0.008577,-0.085495,0.025702,-0.010324,1,1
1295,33,-0.133411,0.103856,-0.021736,-0.018783,0.061855,1,1
1317,33,-0.098700,-0.001451,-0.146822,-0.005228,0.001294,1,1
1287,33,-0.144588,0.084337,-0.044584,0.085752,-0.028923,1,1
1310,33,-0.130987,-0.113394,-0.107086,-0.060931,0.030568,0,1
1306,33,-0.173074,0.000440,-0.072994,-0.024992,-0.054515,1,1
1302,33,-0.201235,-0.035466,-0.040046,-0.065482,-0.024442,1,1
1280,33,-0.150394,0.060806,-0.084622,-0.035142,0.057284,1,1
1283,33,-0.168140,0.065047,0.039224,0.027551,0.057748,1,1
1288,33,-0.057493,0.079403,-0.052888,0.022785,-0.049311,1,1
1292,33,-0.140949,0.106748,-0.002914,-0.027938,0.050855,1,1
1303,33,-0.163226,0.064578,-0.115564,0.004220,-0.019829,1,1
1307,33,-0.069334,-0.077175,-0.135031,-0.057742,-0.012105,0,1
1282,33,-0.055307,0.074483,0.041324,0.041727,0.090591,1,1
1308,33,-0.085823,-0.049816,-0.014615,-0.033371,-0.066111,1,1
1290,33,-0.140846,0.069459,-0.046735,-0.047276,-0.035681,1,1
1300,33,-0.120849,0.020907,-0.133214,-0.036751,0.069153,1,1
1309,33,-0.134867,-0.007001,-0.102323,-0.062166,0.019819,1,1
1313,33,-0.084580,0.044891,-0.095758,-0.117581,-0.050882,1,1
1301,33,-0.101388,0.013556,-0.183247,-0.086393,-0.004870,1,1
1312,33,-0.072018,0.005697,-0.106677,-0.047975,-0.025010,1,1
1284,33,-0.123927,0.089587,0.003788,0.084686,0.008053,1,1
1286,33,-0.050643,0.130347,-0.082692,0.012705,0.000337,1,0
1304,33,-0.081246,-0.079991,-0.005830,0.038723,-0.085373,0,1
1298,33,-0.028980,-0.068505,-0.088761,0.007781,0.034938,1,1
1315,33,-0.137081,-0.120164,-0.045265,-0.074012,-0.094128,0,1
1299,33,-0.143704,0.030798,0.025031,-0.017224,0.067536,1,1
1285,33,-0.085625,-0.022930,-0.019723,-0.036017,0.037374,1,1
1350,34,-0.098831,0.038603,-0.047270,-0.061194,-0.026907,1,1
1338,34,-0.117099,-0.035891,0.001415,0.067483,-0.044410,1,1
1334,34,-0.082675,0.028053,-0.037600,0.030733,-0.054084,1,1
1325,34,-0.131750,0.127753,-0.110127,-0.018448,-0.060732,1,0
1332,34,-0.154409,0.103623,-0.014984,-0.113209,0.035788,1,1
1357,34,-0.094485,0.024741,-0.014101,-0.065193,0.046906,1,1
1324,34,-0.125969,0.096826,-0.035320,-0.056310,-0.036380,1,1
1339,34,-0.181151,0.050434,0.030242,-0.038132,0.000095,1,1
1349,34,-0.173377,-0.065789,-0.051011,-0.056100,-0.019936,1,1
1346,34,-0.160507,-0.068503,-0.179017,-0.066130,-0.051850,1,1
1348,34,-0.098109,-0.032090,-0.094483,-0.013337,0.007301,1,1
1343,34,-0.149174,-0.046906,-0.088425,0.062889,0.004211,1,1
1327,34,-0.079103,0.016513,-0.008593,-0.055249,-0.016026,1,1
1320,34,-0.037861,0.203388,-0.041853,0.080132,0.055145,1,0
1321,34,-0.067589,0.015062,0.069512,-0.083757,-0.029246,1,1
1342,34,-0.054588,0.010293,-0.105495,-0.066954,-0.030728,1,1
1323,34,-0.109634,0.088699,-0.016938,-0.010386,0.115247,1,1
1340,34,-0.145524,0.065083,-0.063878,-0.031502,0.013313,1,1
1333,34,-0.100102,0.117747,-0.079335,0.056122,0.084462,1,1
1355,34,-0.044520,-0.002384,-0.051339,-0.023241,-0.028141,1,1
1354,34,-0.139223,0.022496,0.013919,0.039761,-0.061622,1,1
1351,34,-0.097331,-0.014099,-0.106018,-0.071371,0.008602,1,1
1347,34,-0.063976,-0.086067,-0.101997,0.000429,0.010977,0,1
1341,34,-0.176780,-0.039929,-0.051737,-0.056869,-0.038148,1,1
1336,34,-0.027251,-0.010557,-0.066670,0.026118,-0.009119,1,1
1330,34,-0.057440,0.091905,-0.089701,-0.019838,-0.033241,1,1
1328,34,-0.099877,0.035225,-0.021121,0.031300,-0.045280,1,1
1345,34,-0.130442,-0.086431,-0.045265,-0.078363,-0.023213,1,1
1337,34,-0.138853,0.030151,-0.020556,-0.063774,0.036433,1,1
1358,34,-0.161439,0.023484,-0.097505,-0.009794,0.014551,1,1
1356,34,-0.152862,-0.028151,0.010344,-0.026144,-0.009435,1,1
1335,34,-0.111788,0.100929,-0.020376,0.006711,0.121199,1,1
1326,34,-0.094836,0.108776,-0.003183,0.036230,0.092224,1,1
1344,34,-0.212416,0.029874,-0.060297,0.065482,-0.064914,1,1
1353,34,-0.112227,-0.128808,-0.072607,0.011205,-0.070208,0,1
1359,34,-0.114404,-0.024288,-0.071577,0.002858,-0.080916,1,1
1331,34,-0.093792,0.025621,-0.095555,-0.014393,0.076652,1,1
1322,34,-0.170331,0.001549,-0.035163,0.020993,0.010503,1,1
1329,34,-0.102170,0.052191,0.044156,-0.032175,-0.006017,1,1
1352,34,-0.226832,-0.006337,-0.087740,-0.050515,0.074818,1,1
1387,35,-0.213880,-0.009834,0.015280,-0.069569,-0.072261,1,1
1372,35,-0.142840,0.091459,0.017473,0.033119,0.000398,1,1
1365,35,-0.088361,0.041987,0.008564,-0.049787,0.048729,1,1
1388,35,-0.043030,-0.034619,-0.068077,-0.069369,0.003441,1,1
1378,35,-0.107022,0.112828,-0.010786,-0.041910,0.039326,1,1
1393,35,-0.100392,-0.109362,-0.144949,-0.013813,0.032622,0,1
1389,35,-0.135342,0.017820,-0.085659,-0.072099,0.055710,1,1
1385,35,-0.071632,-0.028232,-0.075061,-0.012536,-0.017947,1,1
1395,35,-0.085589,-0.054772,-0.049514,-0.046639,-0.045066,1,1
1386,35,-0.138152,-0.050328,-0.078327,-0.006793,-0.068540,1,1
1377,35,-0.216706,-0.020405,-0.010622,0.029083,0.159089,1,1
1384,35,-0.044297,-0.015568,-0.090820,0.005251,-0.016738,1,1
1382,35,-0.128286,-0.021559,-0.021703,-0.006363,-0.077252,1,1
1362,35,-0.022848,0.122747,0.000161,0.147632,0.027178,1,0
1375,35,-0.168436,0.109427,-0.018144,-0.021791,0.008519,1,0
1369,35,-0.042733,0.133786,0.019144,0.002569,0.084578,1,0
1370,35,-0.093798,0.065967,-0.059305,-0.021956,0.068756,1,1
1391,35,-0.108155,-0.061811,-0.041525,-0.002110,0.042000,1,1
1398,35,-0.077835,0.046445,-0.050979,-0.110380,-0.110459,1,1
1371,35,-0.127206,0.068099,-0.052306,0.012938,-0.034192,1,1
1394,35,-0.094419,-0.073635,-0.086457,-0.028416,-0.046209,1,1
1383,35,-0.085463,-0.030166,-0.056066,0.029705,-0.028857,1,1
1392,35,-0.149048,-0.128297,-0.183683,-0.045266,0.043919,0,1
1361,35,-0.146424,0.022431,0.018583,0.069308,0.038402,1,1
1360,35,-0.095848,0.026134,-0.025072,0.010401,0.015234,1,1
1399,35,-0.178230,-0.063827,-0.107208,-0.006346,-0.046479,0,1
1364,35,-0.050050,0.022732,0.057715,0.020904,-0.018635,1,1
1380,35,-0.092193,-0.070542,-0.096877,-0.079108,0.023344,1,1
1367,35,-0.138664,0.098481,-0.106104,-0.008151,0.004459,1,1
1390,35,-0.167966,-0.015547,-0.014068,-0.024731,-0.025710,1,1
1366,35,-0.111700,0.038315,-0.040481,0.012350,0.075742,1,1
1381,35,-0.155106,-0.125601,0.036642,-0.010578,-0.064694,0,1
1396,35,-0.020414,-0.047633,-0.091571,-0.033691,-0.017287,1,1
1379,35,-0.114919,0.041606,0.049564,-0.012287,0.041859,1,1
1397,35,-0.046530,0.012102,-0.000363,-0.060093,0.005493,1,1
1376,35,-0.049167,0.111589,0.036336,0.049766,-0.005202,1,1
1373,35,-0.146247,0.082279,-0.072015,0.026013,-0.011800,1,1
1368,35,-0.188175,0.078239,-0.080285,-0.051300,0.003954,1,1
1374,35,-0.214937,0.068847,-0.036511,0.021418,0.010809,1,0
1363,35,-0.124649,0.102216,0.052615,-0.016713,0.050365,1,1
1424,36,-0.048658,0.041384,-0.009311,-0.107510,-0.001840,1,1
1420,36,-0.098519,0.110677,-0.019217,-0.053986,0.008281,1,1
1439,36,-0.032075,-0.054522,-0.025596,0.014857,-0.014353,1,1
1422,36,-0.154114,-0.052167,-0.145657,-0.030170,0.077172,1,1
1435,36,-0.129991,0.024736,-0.109370,0.004554,-0.058472,1,1
1413,36,-0.071374,0.077988,-0.001399,-0.011889,0.061169,1,1
1418,36,-0.108357,-0.000165,-0.003730,-0.006740,0.074362,1,1
1429,36,-0.163651,0.025915,-0.002863,-0.103310,-0.016451,1,1
1416,36,-0.010910,0.057484,0.028174,0.013504,0.030307,1,1
1436,36,-0.072218,-0.078947,0.019028,0.010252,-0.015840,1,1
1432,36,-0.079907,0.028279,0.046712,-0.062747,-0.069946,1,1
1414,36,-0.026144,0.068268,-0.105664,0.015372,0.089547,1,1
1401,36,-0.007768,0.107056,-0.048135,0.046251,0.079966,1,0
1427,36,-0.140879,-0.043447,-0.101171,-0.048943,-0.034862,1,1
1415,36,-0.049358,0.072135,0.052625,0.023512,0.064103,1,1
1405,36,-0.067978,0.065460,0.021445,0.058756,0.036720,1,1
1409,36,-0.148823,0.001020,-0.024532,0.079490,0.025556,1,1
1403,36,-0.028669,0.065501,-0.013051,-0.011813,0.097171,1,1
1417,36,-0.121752,0.055725,-0.025401,-0.001933,-0.034186,1,1
1408,36,-0.079010,0.091526,0.011730,0.000591,0.039607,1,1
1423,36,-0.085094,-0.050080,-0.039473,-0.003934,-0.000414,1,1
1407,36,-0.059983,0.043294,0.009351,0.035332,0.092110,1,1
1412,36,-0.214714,0.120608,-0.059551,0.095056,0.050939,1,0
1430,36,-0.158439,0.058913,-0.067779,-0.016266,0.020898,1,1
1411,36,-0.077300,0.118622,-0.022912,0.057020,0.052255,1,1
1437,36,-0.189149,0.012375,0.033790,-0.020038,-0.016277,1,1
1428,36,0.053767,-0.053283,-0.049751,-0.029794,-0.049335,0,1
1402,36,-0.075941,0.101153,0.056074,0.060056,0.073701,1,1
1434,36,0.002273,-0.100146,-0.090203,-0.054539,-0.072764,0,1
1419,36,-0.128307,0.041305,-0.039463,0.091114,0.037188,1,1
1425,36,-0.092679,-0.060426,-0.040752,0.074914,-0.019036,1,1
1421,36,-0.156672,-0.027720,-0.048317,-0.075716,-0.054630,1,1
1438,36,-0.127120,-0.026351,-0.014986,0.003866,-0.012252,1,1
1406,36,-0.095678,0.032678,-0.028084,0.058951,-0.075990,1,1
1431,36,-0.031509,-0.047117,-0.018652,-0.104536,0.011466,1,1
1433,36,-0.154307,-0.000995,0.027137,-0.092121,-0.062669,1,1
1426,36,-0.126912,-0.007657,-0.053560,0.019005,0.046665,1,1
1404,36,-0.126301,0.001841,-0.007619,0.016468,0.013099,1,1
1410,36,-0.096234,0.116076,-0.038471,0.054558,0.006160,1,1
1400,36,-0.005791,0.086713,-0.052772,0.049269,0.009364,1,1
1470,37,-0.018034,0.074028,-0.039319,-0.045650,0.051159,1,1
1448,37,-0.018640,0.053659,0.069022,-0.035199,0.010599,1,1
1468,37,-0.111532,-0.075402,0.011992,-0.038957,0.051750,1,1
1474,37,-0.145224,-0.047111,-0.037875,0.011418,0.026052,1,1
1465,37,-0.153868,-0.018167,-0.107194,-0.048592,0.021319,1,1
1456,37,-0.174251,0.044421,-0.032419,0.009271,-0.056570,1,1
1473,37,-0.114723,-0.046254,-0.050980,0.032939,0.009498,1,1
1442,37,-0.132244,-0.038680,-0.038714,-0.013284,0.103978,1,1
1459,37,-0.060640,0.075410,-0.061270,0.078307,0.019418,1,1
1476,37,-0.103425,0.004213,-0.095359,-0.017123,0.010018,1,1
1451,37,-0.042395,0.084971,-0.059620,0.057724,-0.033588,1,1
1464,37,-0.064278,-0.051473,-0.003888,-0.056354,-0.019452,1,1
1463,37,-0.113578,0.000362,-0.025369,-0.011199,0.046856,1,1
1460,37,-0.124782,-0.124741,-0.127383,0.012188,0.021198,0,1
1458,37,-0.081999,0.071722,-0.091713,-0.057615,0.044433,1,1
1477,37,-0.003744,-0.007580,0.023733,0.037371,0.029763,1,1
1450,37,-0.101832,0.054623,-0.105595,0.058302,0.051339,1,1
1443,37,-0.125476,0.096066,-0.040138,0.087851,0.078924,1,1
1445,37,-0.009075,0.072634,-0.045282,-0.035835,0.024568,1,1
1446,37,-0.080101,0.038301,0.048079,0.074276,0.051740,1,1
1440,37,-0.149661,0.063131,-0.039501,-0.063557,0.078208,1,1
1461,37,-0.052103,-0.008425,0.000881,-0.072043,-0.015578,1,1
1452,37,-0.079746,0.052615,-0.135562,-0.102390,0.033488,1,1
1466,37,-0.127284,-0.032670,-0.080935,-0.063174,-0.035024,1,1
1449,37,-0.107964,0.026549,0.034474,0.225973,0.021175,1,1
1475,37,-0.037746,-0.015702,-0.064183,-0.018812,-0.053808,1,1
1467,37,-0.127962,0.012445,-0.057516,-0.026412,-0.006869,1,1
1447,37,-0.081267,0.109605,0.007318,-0.063215,-0.011389,1,1
1441,37,-0.086153,0.054192,-0.056624,0.042359,0.076176,1,1
1472,37,-0.009937,-0.105357,-0.036478,-0.022425,0.045428,0,1
1453,37,-0.114558,0.023632,-0.043168,0.003743,0.072274,1,1
1457,37,-0.015860,-0.042795,0.071285,0.022106,0.033142,1,1
1454,37,-0.029722,0.043218,0.023750,-0.038465,0.016589,1,1
1469,37,0.004869,-0.021403,0.009938,-0.062319,0.053061,1,1
1478,37,-0.113129,-0.049518,-0.062096,-0.058924,0.025644,1,1
1471,37,-0.103770,0.006750,0.047002,-0.112100,-0.021100,1,1
1462,37,-0.073259,-0.085147,-0.048052,-0.035966,-0.022494,1,1
1444,37,-0.084805,0.093076,-0.039989,0.062485,0.010653,1,1
1455,37,-0.108222,-0.002114,0.055526,0.027262,0.070834,1,1
1479,37,-0.039743,-0.036203,-0.094633,-0.034729,-0.016940,1,1
1517,38,0.028255,-0.024724,-0.044338,-0.046731,-0.000818,1,1
1482,38,-0.030274,0.040051,-0.049716,0.022768,0.086577,1,1
1500,38,-0.132099,0.029262,0.047517,-0.021454,0.011729,1,1
1494,38,-0.081016,0.019211,-0.049691,0.034184,0.083843,1,1
1509,38,-0.184110,-0.051117,-0.015374,-0.014853,-0.026492,0,1
1499,38,0.017258,0.018960,-0.061459,0.069780,-0.031389,1,1
1486,38,0.037324,0.106970,0.018343,-0.011781,0.068850,1,0
1519,38,-0.081756,0.023050,-0.069715,-0.017228,-0.006625,1,1
1515,38,-0.054612,-0.064487,0.001486,-0.043830,0.040938,1,1
1496,38,-0.108871,0.128670,-0.015907,0.022393,0.066250,1,0
1511,38,-0.019325,-0.012804,-0.070618,-0.054584,0.015535,1,1
1502,38,-0.007997,0.020050,-0.133687,-0.007105,-0.013482,1,1
1512,38,-0.162214,-0.022230,-0.043207,-0.089517,0.094665,1,1
1489,38,-0.030610,0.013756,-0.060362,0.096499,0.032473,1,1
1514,38,-0.121980,-0.087720,-0.036890,0.004564,-0.061819,0,1
1507,38,-0.020619,-0.075481,0.067900,0.004133,0.049392,1,1
1495,38,-0.131165,0.054036,-0.072161,0.076505,0.066464,1,1
1508,38,0.021292,-0.069853,0.008525,-0.014822,-0.016513,0,1
1516,38,-0.044940,0.049225,0.038486,-0.034263,0.015541,1,1
1484,38,-0.080774,0.097036,-0.024978,0.037184,0.090632,1,1
1505,38,-0.092647,-0.083187,-0.078932,0.017105,0.021674,1,1
1480,38,-0.098028,0.044620,-0.046186,0.037225,0.056391,1,1
1481,38,0.043624,0.025663,-0.024740,0.006637,0.071832,1,1
1487,38,-0.198908,0.142826,0.044893,-0.043526,0.039711,1,0
1493,38,-0.119978,0.051090,-0.022678,-0.036443,0.018595,1,1
1488,38,-0.086115,0.081122,0.089897,-0.019184,0.080206,1,1
1483,38,-0.143949,0.051372,0.016698,0.012470,0.059350,1,1
1503,38,-0.035840,-0.008280,-0.096838,0.028605,-0.114809,1,1
1506,38,-0.114673,0.039678,-0.109875,0.035078,0.024904,1,1
1510,38,-0.085705,0.009772,0.000971,-0.058434,-0.102783,1,1
1497,38,-0.046697,0.047289,0.055658,0.106659,0.152094,1,1
1513,38,-0.065519,-0.000850,-0.092720,-0.062613,-0.033767,1,1
1518,38,-0.034659,-0.082457,-0.064909,-0.034867,-0.007178,1,1
1485,38,-0.004070,0.115359,0.057026,0.041237,0.075302,1,0
1498,38,-0.064100,-0.026480,0.037039,0.061511,0.072142,1,1
1492,38,-0.065596,0.023876,0.049289,0.025378,0.058646,1,1
1501,38,-0.074005,-0.087794,-0.046702,0.069538,-0.034710,0,1
1504,38,-0.093511,-0.102197,-0.092184,-0.042310,-0.028280,0,1
1491,38,-0.039491,0.095642,0.018971,0.008592,0.010831,1,1
1490,38,-0.011882,0.041511,-0.105671,0.051654,0.069479,1,1
1530,39,-0.108016,0.072357,0.057331,0.052328,0.093156,1,1
1537,39,-0.003640,0.020946,0.024257,0.089552,0.041891,1,1
1527,39,0.021843,0.155556,0.051792,-0.073252,0.182433,1,0
1526,39,-0.186934,0.086456,-0.072251,0.120459,-0.012828,1,0
1525,39,-0.082991,0.101648,-0.006431,0.054060,0.040158,1,1
1555,39,-0.096506,0.030878,-0.011221,0.122780,0.016518,1,1
1528,39,-0.048111,0.085596,0.013468,0.050323,0.148403,1,1
1522,39,-0.089796,0.091823,0.064832,0.119342,0.054586,1,1
1558,39,-0.069159,-0.047511,-0.034811,0.006509,0.016552,1,1
1549,39,-0.091059,0.023307,-0.007453,0.154804,-0.086932,1,1
1556,39,-0.003448,-0.040183,-0.014496,0.040442,0.068080,1,1
1552,39,-0.127612,-0.043158,-0.074259,-0.008898,-0.012151,1,1
1536,39,-0.028266,0.037670,-0.025256,0.125376,0.039951,1,1
1531,39,-0.134166,-0.022247,0.017327,0.106969,0.066313,1,1
1521,39,-0.035070,-0.025588,-0.019965,0.021604,0.042140,1,1
1523,39,-0.090513,0.137604,0.113335,0.017247,0.115433,1,0
1539,39,-0.004636,0.020276,0.084068,0.083599,-0.011493,1,1
1544,39,-0.047877,-0.017727,0.024840,-0.012115,-0.129172,1,1
1538,39,-0.075864,0.106970,-0.084441,0.069045,0.066333,1,1
1524,39,-0.012786,0.080307,-0.011838,0.024292,0.036935,1,1
1535,39,-0.067286,0.003049,0.016259,0.050313,0.030366,1,1
1557,39,-0.066980,0.000230,-0.050020,-0.070418,0.012441,1,1
1548,39,-0.044419,0.057035,0.015694,-0.017111,-0.040767,1,1
1554,39,-0.127901,-0.009103,-0.085366,-0.028387,-0.043192,1,1
1533,39,-0.049642,0.024235,0.021710,0.006839,0.057765,1,1
1529,39,-0.077868,0.072021,-0.005363,-0.005247,0.116785,1,1
1543,39,-0.109326,0.084231,-0.128490,-0.038400,-0.031571,1,1
1542,39,-0.069839,-0.008106,-0.024891,0.043492,0.030176,1,1
1540,39,-0.002714,-0.005338,-0.117795,-0.027079,-0.017516,1,1
1553,39,-0.091301,-0.165889,-0.100230,-0.015980,-0.044929,0,1
1547,39,-0.017218,-0.000923,-0.080438,-0.096255,-0.082980,1,1
1520,39,-0.096078,0.071440,0.059586,0.042088,0.000103,1,1
1532,39,-0.017934,0.050733,-0.034814,0.057492,-0.005600,1,1
1541,39,-0.051869,-0.069685,0.016556,0.042232,0.034041,1,1
1559,39,0.006778,-0.102256,-0.047594,-0.063415,-0.089452,0,1
1550,39,0.038101,-0.083099,0.000460,0.015901,0.060301,0,1
1551,39,-0.026363,-0.115368,0.049429,-0.078263,0.024688,0,1
1546,39,-0.008008,0.006084,-0.112086,-0.099361,-0.016628,1,1
1534,39,-0.188908,0.098226,0.109565,0.009700,0.029968,1,0
1545,39,-0.087934,0.017807,-0.097544,-0.009864,0.015239,1,1
1566,40,0.014628,0.107407,0.079247,-0.005560,-0.016357,1,0
1595,40,-0.040090,-0.053569,0.032313,-0.011659,0.052084,1,1
1585,40,-0.004249,0.039988,0.061281,-0.032504,-0.008732,1,1
1562,40,-0.087330,0.095445,-0.085290,0.048139,0.088167,1,1
1571,40,-0.129940,-0.011321,0.068946,-0.023764,0.005356,1,1
1589,40,-0.015196,0.040441,-0.090378,0.018016,0.053294,1,1
1570,40,-0.035940,0.055550,0.089544,-0.032208,0.001169,1,1
1560,40,-0.055295,0.159283,0.024368,-0.018206,0.054905,1,0
1597,40,-0.062833,0.025982,0.015173,0.017018,0.070016,1,1
1583,40,-0.078100,-0.062766,-0.043979,-0.057082,0.082192,1,1
1599,40,-0.017450,-0.032422,-0.007235,-0.026491,0.029342,1,1
1593,40,-0.086170,-0.046446,-0.054394,-0.003196,0.038596,1,1
1574,40,0.011130,0.054521,0.015970,0.053031,0.102614,1,1
1572,40,-0.117608,-0.004693,-0.045834,0.044559,0.033327,1,1
1582,40,-0.045047,-0.079970,-0.066881,-0.010093,0.014101,1,1
1569,40,-0.021888,0.034121,0.011035,0.045203,0.021491,1,1
1578,40,-0.094116,0.042180,-0.008094,0.017485,-0.070698,1,1
1598,40,-0.012260,0.020518,-0.070418,-0.042540,0.128910,1,1
1596,40,-0.104725,0.048270,-0.071150,0.058778,0.005892,1,1
1594,40,-0.054117,0.044827,0.030991,0.046192,0.003399,1,1
1592,40,-0.067697,-0.034902,-0.017567,0.046372,-0.017558,1,1
1565,40,-0.053645,0.109973,-0.140155,0.113080,-0.010423,1,1
1576,40,-0.005059,0.071477,-0.061160,0.096830,0.002076,1,1
1591,40,-0.022851,-0.070363,0.046880,-0.113647,0.084178,1,1
1579,40,-0.101252,-0.046930,0.015873,-0.064053,0.038907,1,1
1575,40,-0.002542,0.005978,0.069198,-0.082514,-0.055550,1,1
1588,40,-0.064653,0.075559,0.032646,0.013420,0.017149,1,1
1563,40,-0.073352,0.057413,0.048503,-0.023770,0.076749,1,1
1586,40,-0.039338,-0.010360,-0.097763,0.009821,0.001853,1,1
1580,40,0.005777,-0.015720,-0.086150,-0.012830,0.026770,1,1
1577,40,-0.106079,0.067754,-0.033297,0.043110,0.014134,1,1
1581,40,-0.008902,-0.005364,-0.032508,-0.050888,0.016012,1,1
1590,40,-0.070922,-0.076641,-0.079894,0.016300,0.055929,1,1
1564,40,-0.029154,0.085901,0.008126,-0.048926,0.042968,1,1
1561,40,-0.007312,-0.057879,-0.023628,0.063998,0.000167,1,1
1573,40,-0.070169,0.031891,-0.016734,0.047491,0.159344,1,1
1567,40,-0.017162,0.159134,0.023247,0.027409,0.042567,1,0
1587,40,-0.033477,-0.084768,-0.005247,-0.045071,-0.014934,0,1
1584,40,-0.132349,-0.100243,-0.022973,-0.022237,0.023051,0,1
1568,40,-0.028326,0.120140,-0.077410,0.051352,0.034413,1,0
1622,41,-0.094722,-0.031145,-0.056336,-0.045542,0.036149,1,1
1624,41,-0.000520,-0.022306,0.025879,0.004465,0.051190,1,1
1632,41,0.044053,-0.119442,-0.026182,0.090474,-0.020392,0,1
1639,41,-0.046444,0.042427,-0.129309,0.032520,-0.049598,1,1
1604,41,-0.064210,0.059382,0.034583,0.038827,-0.014514,1,1
1614,41,-0.068198,0.048336,-0.002174,0.036900,0.034562,1,1
1627,41,-0.138909,-0.109495,-0.054680,-0.068063,0.018526,0,1
1621,41,-0.020924,-0.054638,-0.014528,0.107768,-0.009723,1,1
1607,41,-0.045067,0.089591,0.079362,-0.031387,0.003724,1,1
1629,41,-0.070516,-0.078783,-0.000845,0.017671,-0.041836,1,1
1617,41,-0.108429,0.094841,-0.032361,0.027279,0.135076,1,1
1613,41,-0.115574,0.084471,0.028738,0.034776,0.068742,1,1
1609,41,-0.054015,0.112557,0.022806,0.055085,0.006766,1,1
1610,41,-0.083189,0.043030,0.101820,-0.054106,0.012758,1,1
1600,41,-0.061903,0.069542,0.037025,-0.007609,-0.029310,1,1
1628,41,-0.004258,0.043928,-0.053633,-0.053389,-0.034858,1,1
1638,41,0.005335,-0.057958,-0.022621,0.012009,0.071657,1,1
1601,41,-0.026440,0.065813,-0.011551,0.034127,0.101002,1,1
1602,41,-0.026949,-0.000555,-0.076265,0.085288,0.082191,1,1
1608,41,0.009719,0.101842,-0.054245,0.031557,-0.032866,1,1
1635,41,-0.099037,-0.063751,0.004105,0.027104,-0.054957,1,1
1619,41,-0.024480,0.096895,0.089800,-0.002641,0.069521,1,1
1636,41,-0.005737,-0.050649,-0.006151,-0.021756,-0.011963,1,1
1637,41,0.022926,0.056475,-0.042586,0.053852,0.041393,1,1
1625,41,-0.123164,0.009041,0.038719,-0.121946,0.034137,1,1
1631,41,-0.071327,-0.082383,-0.001611,-0.006052,-0.033795,1,1
1620,41,-0.007445,0.054537,0.080475,0.021945,0.037802,1,1
1612,41,-0.044739,0.050091,-0.050708,0.112974,0.085199,1,1
1633,41,-0.022531,0.030002,-0.078954,-0.003388,0.014253,1,1
1626,41,-0.054575,-0.000557,-0.070997,-0.047116,0.076916,1,1
1616,41,-0.139313,-0.034675,0.031695,0.038732,0.011643,1,1
1623,41,-0.085014,-0.012906,0.091858,-0.045431,0.045824,1,1
1606,41,-0.012140,0.044498,-0.027150,-0.005926,-0.001403,1,1
1618,41,0.013446,0.128116,0.069200,0.050426,0.050974,1,0
1634,41,-0.064309,-0.069473,-0.058542,0.011888,0.082815,1,1
1603,41,-0.007685,0.139482,-0.065704,-0.029511,0.018832,1,0
1605,41,-0.055996,0.056486,0.006433,0.030520,0.059527,1,1
1615,41,0.010886,0.057436,-0.013141,0.083641,0.009212,1,1
1611,41,-0.099019,-0.008437,0.032498,0.060250,0.010058,1,1
1630,41,0.134981,-0.023825,-0.009433,-0.058608,0.098659,0,1
1677,42,-0.006423,-0.045893,-0.025021,-0.070922,0.058428,1,1
1654,42,-0.074970,0.089884,0.030708,-0.009418,0.059800,1,1
1661,42,0.013499,-0.075531,-0.023027,-0.018863,-0.010388,1,1
1655,42,-0.007715,0.126565,0.044127,0.097895,-0.012376,1,0
1646,42,0.009354,0.076686,-0.028386,0.047587,0.035211,1,1
1672,42,0.004249,0.037174,0.039228,0.030091,0.000542,1,1
1644,42,-0.078577,-0.008560,0.078791,0.036423,0.022868,1,1
1656,42,0.056385,0.149854,-0.046624,-0.055047,0.072270,1,0
1659,42,-0.099001,0.022359,0.030905,0.047467,0.139461,1,1
1657,42,-0.021401,0.052559,0.123223,0.022765,0.057787,1,1
1650,42,-0.054524,0.021706,-0.043306,0.019918,0.063417,1,1
1649,42,-0.056631,0.065236,0.084069,0.048472,0.096389,1,1
1670,42,-0.066497,-0.033626,-0.017803,0.026798,0.029438,1,1
1669,42,-0.034013,-0.064531,-0.060232,-0.007772,-0.041192,1,1
1665,42,-0.062358,-0.034299,-0.030443,0.011840,-0.036263,1,1
1651,42,-0.108827,0.040193,-0.024402,0.113106,0.090022,1,1
1645,42,0.008593,-0.031741,0.055888,0.037471,0.108135,1,1
1675,42,-0.045255,0.065841,-0.043361,-0.000261,0.069068,1,1
1676,42,0.012159,-0.058273,0.007656,-0.033420,-0.018943,1,1
1666,42,-0.072103,0.007436,0.031307,-0.029363,0.024709,1,1
1658,42,-0.144850,0.104499,0.021153,0.001612,0.058140,1,0
1679,42,0.003449,-0.075599,-0.031269,-0.019378,0.098408,1,1
1648,42,-0.104736,0.030670,0.003234,0.024182,0.044848,1,1
1668,42,-0.100175,-0.036486,-0.042263,-0.099020,0.070066,1,1
1653,42,-0.056383,0.155156,0.078703,-0.037690,0.024082,1,0
1652,42,-0.016824,0.069629,-0.013010,0.093717,0.013289,1,1
1642,42,-0.096888,0.065722,0.093712,0.094691,0.037769,1,1
1671,42,0.011070,-0.067546,0.020997,0.117364,-0.007263,1,1
1641,42,0.019132,0.066258,0.036746,0.005708,0.004670,1,1
1678,42,0.020784,0.024068,-0.042957,-0.094958,0.000574,1,1
1660,42,-0.043616,-0.009206,-0.051214,0.044669,0.051477,1,1
1640,42,-0.146774,0.135370,0.027619,-0.000442,0.053461,1,0
1664,42,-0.127965,-0.084539,-0.035492,-0.014042,0.109629,0,1
1663,42,-0.043108,-0.051012,-0.068517,-0.020879,0.082566,1,1
1643,42,0.021182,-0.004608,0.045650,0.055384,0.088745,1,1
1662,42,-0.004495,-0.092738,-0.046910,0.013763,-0.062772,0,1
1667,42,-0.091966,-0.067859,-0.005105,0.021217,0.049440,1,1
1674,42,-0.052084,0.034077,0.060049,0.041587,0.000852,1,1
1647,42,0.001040,0.130741,-0.013494,0.023109,0.081692,1,0
1673,42,-0.054035,0.042997,0.012342,-0.050117,0.080128,1,1
1696,43,-0.029308,0.130319,-0.020417,0.104368,0.131990,1,0
1689,43,0.006790,-0.013192,0.055624,-0.001161,0.075730,1,1
1684,43,-0.113780,0.145046,0.063164,0.040694,-0.008467,1,0
1697,43,0.088082,0.052063,0.019792,0.109528,0.006027,1,1
1708,43,0.040988,-0.142598,0.032324,0.025250,0.016189,0,1
1687,43,-0.078251,0.096474,0.000359,0.042011,0.067609,1,1
1682,43,-0.007915,0.144551,-0.072986,0.116086,0.046001,1,0
1681,43,-0.071770,0.015853,0.068488,0.069863,0.074330,1,1
1717,43,0.018100,-0.048191,-0.103589,-0.029913,0.086294,1,1
1715,43,-0.025171,0.013673,0.014044,-0.016974,0.006082,1,1
1709,43,-0.061878,-0.004913,-0.000740,-0.018475,-0.006002,1,1
1714,43,-0.012456,-0.063948,-0.055171,0.012035,0.039145,1,1
1711,43,-0.019665,-0.027860,0.036315,0.017139,-0.024746,1,1
1712,43,-0.070409,-0.049993,-0.099191,0.032120,-0.097010,1,1
1704,43,-0.135477,-0.117407,0.022008,-0.030701,0.036250,0,1
1686,43,-0.001251,0.024984,0.005167,0.036894,0.097423,1,1
1691,43,-0.031070,0.071393,-0.004286,0.088427,0.019530,1,1
1718,43,-0.003850,-0.056818,-0.102551,0.027542,0.109830,1,1
1690,43,-0.071167,0.068712,0.003731,0.016131,0.104605,1,1
1680,43,-0.028804,0.048944,0.072499,-0.047498,0.136024,1,1
1700,43,-0.007395,-0.080096,-0.052908,0.028066,0.002101,1,1
1716,43,-0.084295,-0.037121,-0.070549,0.020768,0.003856,1,1
1685,43,0.020156,0.028625,0.067452,0.063266,0.188176,1,1
1703,43,-0.045238,-0.095660,0.090368,-0.063035,0.103899,0,1
1699,43,0.028287,0.068516,0.019458,-0.015118,0.036375,1,1
1698,43,-0.052066,-0.028317,0.029043,-0.041935,0.025374,1,1
1719,43,-0.052572,0.040593,-0.014199,-0.033269,-0.055749,1,1
1713,43,-0.084693,-0.098971,0.024457,-0.035066,0.045288,0,1
1707,43,-0.049818,-0.043589,-0.002018,0.111005,0.120593,1,1
1701,43,-0.022853,-0.034461,-0.058703,0.004478,-0.028879,1,1
1710,43,-0.086827,0.020828,0.053823,-0.018366,-0.017207,1,1
1705,43,-0.015795,-0.019047,-0.043798,-0.020158,0.109595,1,1
1683,43,0.029339,0.024030,0.012634,0.067565,0.093459,1,1
1694,43,-0.050503,0.150046,0.155491,-0.085428,-0.052797,1,0
1695,43,0.004281,0.024114,0.044855,0.015158,0.059977,1,1
1706,43,0.041542,0.010770,0.008342,0.045648,0.106415,1,1
1688,43,-0.009776,0.081364,0.025653,0.023189,0.044698,1,1
1692,43,-0.113760,0.057382,-0.006281,-0.002545,0.014734,1,1
1693,43,-0.048874,0.078703,0.040219,0.026361,0.013510,1,1
1702,43,0.003535,0.066515,0.027183,-0.018906,-0.072320,1,1
1733,44,-0.042527,0.080412,0.061040,0.019330,0.153427,1,1
1740,44,0.042793,0.033382,-0.061038,-0.121440,0.013096,1,1
1758,44,0.034503,-0.042722,-0.049929,-0.009864,0.070441,1,1
1744,44,0.047426,-0.068638,-0.026204,-0.022119,0.008715,1,1
1721,44,0.027519,0.022860,0.071590,0.024433,0.101608,1,1
1731,44,0.100672,0.078377,0.016857,0.023878,0.140585,1,0
1723,44,-0.003243,0.035599,0.001774,-0.005061,0.053496,1,1
1741,44,0.039801,-0.015932,-0.060290,-0.032420,0.118837,1,1
1742,44,-0.032832,-0.029124,-0.127070,-0.003428,-0.049293,1,1
1746,44,0.043324,-0.094514,-0.107499,-0.059740,0.063764,0,1
1752,44,0.012232,-0.000029,0.044959,0.017158,0.001868,1,1
1732,44,0.121703,0.073144,-0.035520,0.040012,0.152115,1,0
1750,44,-0.023550,-0.023488,0.022621,0.019455,-0.000302,1,1
1756,44,-0.051957,0.009082,0.037021,-0.031886,0.059943,1,1
1739,44,0.087490,0.084848,0.107911,0.009325,0.067436,1,0
1735,44,-0.047802,0.083073,-0.047183,0.133474,0.148759,1,1
1753,44,0.004157,0.006088,-0.053782,0.028010,0.084274,1,1
1722,44,-0.036895,0.115323,0.007800,0.062114,0.070532,1,1
1736,44,0.035417,0.099751,0.060224,0.034601,0.130692,1,1
1754,44,0.020568,0.012567,-0.006560,0.047832,-0.034201,1,1
1734,44,0.007248,0.155969,0.065908,0.029364,0.066282,1,0
1743,44,-0.068509,-0.013123,0.058714,0.074871,-0.027993,1,1
1747,44,0.059407,-0.076127,-0.004867,-0.062106,0.035524,0,1
1751,44,0.051087,-0.058769,-0.022989,-0.057350,0.104683,1,1
1737,44,0.001579,0.053125,0.128550,0.136364,0.059901,1,1
1738,44,0.007108,0.079748,0.076311,0.130839,-0.011561,1,1
1720,44,0.080764,0.091781,0.033263,0.082931,0.097955,1,0
1755,44,-0.052751,-0.014921,-0.090371,-0.029380,0.044658,1,1
1729,44,-0.014564,0.078673,0.018532,-0.108408,0.002403,1,1
1724,44,0.031812,0.083933,-0.007607,0.089139,0.118283,1,1
1730,44,0.022325,0.072321,0.023166,0.158026,0.084309,1,1
1726,44,-0.023429,0.002752,0.039136,-0.010194,0.103822,1,1
1745,44,-0.059211,-0.063307,0.033622,-0.044083,0.053244,1,1
1748,44,0.012966,0.020963,-0.014190,0.071075,0.068359,1,1
1725,44,-0.065410,0.019175,-0.023384,0.086386,0.059347,1,1
1727,44,-0.073858,0.095756,0.041179,0.060643,0.079812,1,1
1749,44,0.001583,-0.067287,-0.074492,-0.027205,0.057247,1,1
1728,44,-0.002159,0.092285,0.075616,0.071744,0.086209,1,1
1757,44,0.036433,-0.003997,-0.123487,-0.024505,0.101661,1,1
1759,44,-0.011811,0.021200,-0.037484,0.010315,0.110697,1,1
1771,45,-0.047616,0.084895,0.088046,-0.026900,0.082196,1,1
1784,45,0.028596,-0.025134,0.007240,0.010963,0.014318,1,1
1781,45,0.037490,0.023061,-0.074048,-0.020958,-0.102252,1,1
1762,45,-0.065415,-0.018252,0.009118,0.021675,0.094570,1,1
1794,45,-0.004559,-0.039696,0.036138,0.051267,0.075569,1,1
1760,45,-0.021196,0.004693,0.076010,0.113654,0.060859,1,1
1773,45,-0.009437,0.005258,0.015692,-0.013443,0.120702,1,1
1777,45,0.047885,0.057744,0.035857,-0.016922,0.100141,1,1
1766,45,-0.100089,0.066632,-0.001121,0.009219,0.033759,1,1
1775,45,0.000103,0.094123,0.145104,0.016886,0.087913,1,1
1767,45,-0.076898,0.078625,-0.009639,0.058673,0.018082,1,1
1786,45,-0.071367,-0.063153,-0.014106,-0.057840,0.020169,1,1
1791,45,-0.022268,0.044317,0.011268,-0.038747,0.010405,1,1
1780,45,0.003494,-0.007976,0.000178,-0.011273,0.042640,1,1
1772,45,-0.056866,0.040582,0.067343,0.059593,0.052208,1,1
1763,45,0.067414,0.062711,-0.014171,-0.034403,0.109578,1,1
1769,45,0.154202,0.121228,0.094222,0.068843,0.171735,1,0
1788,45,0.075954,0.065860,-0.056164,-0.023800,0.001870,1,1
1779,45,-0.021277,-0.000598,-0.017212,0.103899,0.061511,1,1
1795,45,0.022305,-0.037019,-0.072999,0.047756,0.004462,1,1
1778,45,-0.003120,0.107773,0.102695,0.129538,0.024430,1,1
1790,45,0.004443,-0.063185,0.002250,-0.038245,0.072560,1,1
1770,45,0.064692,0.090882,0.008608,0.023902,0.032625,1,1
1787,45,-0.023813,-0.130620,-0.096857,0.010435,0.043304,0,1
1797,45,-0.053469,0.048576,-0.109204,0.137532,0.056428,1,1
1789,45,-0.029554,-0.087322,-0.002609,-0.086234,0.046885,0,1
1798,45,0.015834,-0.003898,0.020639,-0.051689,-0.008483,1,1
1799,45,-0.102181,0.010706,-0.063147,0.032622,-0.050940,1,1
1776,45,-0.015307,0.094431,0.065063,0.090693,0.084868,1,1
1761,45,-0.057937,0.032562,0.039182,0.067272,0.071660,1,1
1785,45,-0.033321,-0.060421,-0.029690,0.048455,0.015859,1,1
1768,45,-0.111273,0.089282,0.066749,0.078420,0.140821,1,0
1764,45,-0.034741,0.078784,0.080819,0.033260,0.139889,1,1
1793,45,-0.012313,-0.036702,-0.147409,0.031937,0.041744,1,1
1783,45,0.032945,0.067153,-0.005220,0.025736,0.081876,1,1
1792,45,0.094717,0.023306,0.013508,0.035438,0.082878,1,1
1782,45,-0.009051,0.040661,-0.047930,-0.029870,0.091638,1,1
1796,45,-0.114683,-0.093791,-0.080591,-0.018751,0.054971,0,1
1774,45,-0.014867,0.028553,-0.012215,0.028182,0.035134,1,1
1765,45,-0.019029,0.136768,0.095128,0.203017,0.085026,1,0
1837,46,0.007358,0.027508,-0.018575,0.095074,-0.063599,1,1
1827,46,-0.067647,0.031405,0.007855,0.069106,-0.053951,1,1
1821,46,0.037945,-0.032887,0.000473,-0.020828,-0.121685,1,1
1802,46,-0.061449,0.146830,0.048167,0.160106,0.145442,1,0
1819,46,0.014350,0.047877,-0.044407,0.087561,0.077536,1,1
1815,46,-0.007978,0.082681,0.061524,0.017145,0.067028,1,1
1801,46,-0.059165,0.070569,0.027411,0.071247,0.044852,1,1
1823,46,0.116571,-0.054157,0.024588,-0.025979,0.030913,0,1
1824,46,0.046855,0.104220,-0.003149,0.019241,0.002125,1,1
1835,46,-0.013793,-0.045745,0.028776,-0.040480,-0.002326,1,1
1838,46,-0.006555,-0.079948,-0.004721,0.048727,0.048919,1,1
1817,46,-0.043191,0.113591,-0.032469,0.118045,0.131924,1,0
1808,46,-0.012358,0.005872,0.022268,0.011622,0.049360,1,1
1830,46,-0.015065,-0.083606,-0.106893,0.058375,0.015821,1,1
1807,46,-0.049115,0.032697,-0.051468,-0.035375,0.152874,1,1
1828,46,-0.029958,-0.046437,-0.060504,-0.038189,0.083102,1,1
1833,46,-0.072280,-0.074762,0.027371,0.078471,0.053769,0,1
1834,46,0.000785,-0.007020,0.023411,0.003842,0.015430,1,1
1822,46,-0.043134,-0.024160,-0.011592,0.024923,-0.037416,1,1
1816,46,-0.014718,0.048387,-0.026150,-0.016401,0.048163,1,1
1809,46,0.073985,0.136486,0.027216,0.074672,0.104662,1,0
1832,46,-0.012901,0.010313,0.005476,-0.035553,0.052797,1,1
1812,46,0.085307,0.093223,0.041652,0.058407,0.039851,1,1
1811,46,0.055629,0.094464,0.042433,0.004411,0.042138,1,1
1818,46,0.041264,0.003923,0.050936,0.038521,0.004917,1,1
1820,46,-0.000840,-0.177648,0.003358,-0.019327,0.056876,0,1
1814,46,-0.021992,0.046452,0.080312,0.042506,0.069189,1,1
1836,46,0.033562,-0.109395,-0.026634,0.061990,0.066366,0,1
1826,46,-0.022257,-0.020539,0.017959,0.089657,-0.037274,1,1
1839,46,-0.030685,-0.016542,0.088141,0.012452,0.120883,1,1
1804,46,0.029648,0.107205,0.054473,-0.020361,0.018342,1,1
1831,46,0.022286,-0.021221,-0.027907,0.075919,0.029756,1,1
1825,46,-0.048238,-0.115001,0.017906,0.020381,0.044408,0,1
1803,46,-0.097005,0.035200,0.028165,0.080630,0.106430,1,1
1829,46,0.011960,0.009111,-0.070691,-0.005951,0.042492,1,1
1805,46,0.056438,0.045900,0.073617,0.085785,0.086795,1,1
1813,46,-0.062436,0.094084,-0.000786,0.033078,0.004223,1,1
1800,46,-0.026443,0.025200,-0.071381,0.011619,0.154802,1,1
1810,46,-0.007119,0.058086,-0.015437,0.032967,0.090227,1,1
1806,46,0.098515,0.041079,-0.047617,0.001092,-0.014194,1,1
1865,47,0.067938,0.005163,0.067058,0.015227,0.068303,1,1
1852,47,-0.033359,0.054234,0.012437,0.034309,0.041020,1,1
1844,47,0.004632,0.162599,0.073523,0.063925,0.068455,1,0
1846,47,0.026157,0.003499,0.096034,0.075914,0.062981,1,1
1843,47,0.027304,-0.033668,0.074256,0.083026,-0.000202,1,1
1872,47,-0.003493,-0.035517,0.016884,-0.033868,0.027476,1,1
1876,47,-0.021588,-0.102788,-0.049179,0.128488,-0.086113,0,1
1878,47,0.033328,-0.037258,0.053136,-0.082933,0.013224,1,1
1840,47,0.036960,0.137251,0.024290,0.093297,0.146696,1,0
1870,47,0.014311,-0.052928,0.107748,-0.006774,0.129748,1,1
1871,47,-0.043667,-0.119041,0.009398,0.027248,-0.034441,0,1
1866,47,0.058421,-0.028711,-0.070230,-0.016836,0.032773,1,1
1861,47,0.033133,-0.023011,-0.006035,0.031529,0.025018,1,1
1849,47,0.039713,0.039612,0.099179,0.073589,-0.012357,1,1
1879,47,-0.044822,-0.054949,0.129273,0.045618,-0.061213,1,1
1842,47,-0.064761,0.045760,0.028066,0.072061,0.124949,1,1
1874,47,0.019860,-0.062693,-0.020243,-0.035735,0.056640,1,1
1850,47,0.076954,-0.016719,0.080895,0.066334,0.077424,1,1
1853,47,0.011161,0.074607,0.013785,0.111073,0.119352,1,1
1856,47,-0.012517,0.036719,0.037640,0.037954,0.103348,1,1
1875,47,0.047988,0.030399,0.043919,0.122020,0.034252,1,1
1862,47,-0.020406,0.055018,0.061048,0.009341,0.040392,1,1
1877,47,0.024359,0.012988,-0.078537,-0.068218,0.053626,1,1
1848,47,-0.007781,0.056935,0.103924,0.079240,-0.006736,1,1
1860,47,-0.139623,-0.097894,-0.045081,0.030235,0.009664,0,1
1869,47,0.012308,-0.081939,0.001767,-0.011039,-0.028436,1,1
1868,47,0.085922,-0.050928,0.010326,-0.008313,0.022246,1,1
1858,47,-0.011120,0.082396,0.067600,0.019844,0.120029,1,1
1859,47,0.045101,0.142851,0.106968,0.073968,0.053223,1,0
1851,47,-0.033512,0.133728,0.122348,0.067560,0.075447,1,0
1857,47,0.074663,0.004711,0.014229,0.066090,0.003436,1,1
1864,47,-0.078088,-0.132572,-0.072834,0.144213,0.056439,0,1
1863,47,-0.019323,0.018588,-0.008512,0.065715,0.011612,1,1
1847,47,-0.151486,0.109169,0.051999,0.018479,0.007671,1,0
1867,47,0.065961,0.025987,-0.024234,0.045708,0.024035,1,1
1873,47,0.010151,-0.027186,-0.044337,0.065173,0.039591,1,1
1855,47,0.012967,0.147283,0.064404,0.097129,0.093055,1,0
1841,47,0.044469,0.048353,-0.017164,0.004157,0.079617,1,1
1845,47,0.132229,0.064965,0.027172,0.031903,0.115239,1,1
1854,47,0.014384,0.153814,-0.069925,0.075633,0.043101,1,0
1897,48,0.031693,0.083177,-0.007190,0.080124,0.125383,1,1
1886,48,0.007459,0.032928,0.022285,0.141522,0.134722,1,1
1894,48,0.003244,0.082655,0.022160,-0.017713,0.117599,1,1
1889,48,0.010398,0.123542,0.026263,0.032632,0.004557,1,0
1916,48,0.027440,-0.099312,0.043821,-0.002970,0.089515,0,1
1917,48,0.039372,-0.019604,0.041151,0.006481,0.016867,1,1
1911,48,-0.001437,-0.012120,0.026492,0.008559,-0.025084,1,1
1905,48,-0.013373,-0.105920,-0.091449,0.042182,0.027254,0,1
1901,48,0.023982,-0.033835,-0.066384,-0.043526,0.067694,1,1
1899,48,0.075387,0.055830,0.093127,0.050894,0.052083,1,1
1887,48,-0.015229,0.142927,0.052740,0.117203,0.088351,1,0
1908,48,0.049842,0.038234,-0.030195,0.047485,0.055786,1,1
1883,48,0.042369,0.088898,-0.053123,0.088756,0.101612,1,1
1915,48,-0.102379,-0.018156,-0.017258,-0.032336,0.049228,1,1
1895,48,0.021127,0.068810,-0.007806,-0.032689,0.085959,1,1
1919,48,-0.071221,-0.067818,0.041773,0.020924,0.043641,0,1
1904,48,0.104106,-0.096038,-0.049289,0.088252,0.111613,0,1
1888,48,0.057870,-0.047009,0.027974,0.093384,0.005123,1,1
1881,48,0.112606,0.027591,0.018924,0.142658,0.047235,1,1
1893,48,0.055554,0.121157,-0.046256,0.086384,0.060234,1,0
1918,48,0.056189,0.093133,0.067246,0.086386,-0.020415,1,1
1914,48,0.056731,0.013733,0.019995,0.002586,0.133675,1,1
1900,48,0.042629,-0.073209,0.007856,-0.006390,0.004601,1,1
1896,48,-0.042675,0.041392,0.020026,0.000523,0.102097,1,1
1890,48,-0.101525,0.059426,-0.005053,0.068197,0.130241,1,0
1885,48,-0.053412,0.054673,-0.054335,0.118672,0.106742,1,1
1903,48,-0.034047,-0.067763,0.060414,0.046449,0.087624,1,1
1909,48,0.036513,-0.039473,-0.086869,0.028865,-0.065291,1,1
1882,48,0.008096,0.144789,-0.027926,0.008167,0.111321,1,0
1891,48,0.011425,0.073289,0.051476,0.008147,0.068178,1,1
1906,48,0.117697,-0.008626,0.011794,0.062130,-0.006453,1,1
1910,48,0.075637,0.006410,-0.042760,0.107061,0.109036,1,1
1880,48,0.055241,0.094369,0.056525,0.032524,0.048703,1,1
1907,48,-0.034239,0.092232,-0.084555,0.118978,-0.022572,1,1
1913,48,-0.005914,-0.059369,0.009230,0.066762,0.021031,1,1
1898,48,0.025387,0.167781,0.070619,0.083143,0.048231,1,0
1884,48,0.062027,0.051416,0.018422,0.072871,0.091306,1,1
1912,48,0.015788,-0.015158,0.051509,0.027671,0.083162,1,1
1902,48,0.063209,-0.045780,-0.032240,0.103758,0.110028,1,1
1892,48,-0.010756,0.058821,0.053025,0.080229,0.068789,1,1
1945,49,0.014476,-0.008618,-0.034998,-0.087169,0.057875,1,1
1948,49,0.062964,-0.007021,0.094522,0.018270,0.039211,1,1
1952,49,0.073342,-0.028525,0.014321,0.014104,0.125191,1,1
1958,49,0.058443,-0.059115,-0.126760,0.093245,0.140686,1,1
1953,49,0.051350,-0.037072,0.031253,0.058441,0.002878,1,1
1923,49,-0.080537,-0.007918,0.049100,0.051848,0.013040,1,1
1932,49,0.009004,-0.001352,0.092168,0.142175,0.020728,1,1
1956,49,0.011336,0.016076,-0.004390,-0.041332,0.058622,1,1
1929,49,-0.060739,0.032300,0.025450,0.107999,0.163736,1,1
1927,49,0.024230,0.070676,0.015203,0.079464,0.008797,1,1
1930,49,0.052132,0.090067,0.036941,0.134349,0.039137,1,1
1940,49,-0.049132,-0.004243,0.016930,-0.003190,0.070873,1,1
1954,49,0.048655,-0.095423,0.045965,0.012363,0.048587,0,1
1925,49,0.116054,0.076799,-0.003673,0.061318,0.241724,1,1
1938,49,0.038812,0.090983,0.027096,0.104182,0.037950,1,1
1922,49,0.098067,0.101975,0.002334,0.046659,0.079409,1,1
1937,49,-0.015732,0.095537,0.104272,-0.002999,0.107782,1,1
1926,49,0.073872,0.083601,-0.073515,-0.014590,0.060600,1,1
1959,49,-0.002418,-0.012620,0.022922,0.041331,0.068231,1,1
1947,49,0.031301,-0.102504,-0.026695,0.014606,-0.005689,0,1
1928,49,0.013133,0.048572,0.130299,0.061343,0.051247,1,1
1942,49,0.016824,0.010124,-0.003614,0.052096,0.092670,1,1
1935,49,0.033593,0.107021,0.061430,0.037054,0.189477,1,1
1920,49,0.034131,0.007764,0.088702,0.062377,0.046722,1,1
1951,49,0.020638,-0.131987,-0.069231,0.094898,0.029167,0,1
1924,49,0.065967,0.049525,0.075958,0.038000,0.048197,1,1
1934,49,0.150221,0.043028,0.093959,0.159094,0.171505,1,1
1950,49,0.079649,-0.108409,0.047592,0.103774,0.156975,0,1
1949,49,0.031378,-0.066198,0.115124,0.030205,0.058741,1,1
1943,49,0.095956,-0.078442,0.013085,0.102244,-0.044381,0,1
1941,49,0.008756,-0.116029,-0.020542,0.048303,0.091345,0,1
1957,49,0.095395,0.011268,-0.049100,0.029372,0.068665,1,1
1939,49,0.091015,0.089186,0.112084,0.083772,0.168172,1,1
1931,49,-0.026875,-0.007382,-0.019258,0.046764,0.116748,1,1
1933,49,-0.011686,0.125206,0.019191,0.129749,0.137587,1,0
1921,49,0.062009,0.096723,-0.036350,0.083695,0.117026,1,1
1955,49,0.036896,0.029966,-0.053976,0.026755,0.075811,1,1
1946,49,-0.060116,-0.068743,-0.097099,0.102322,-0.004854,0,1
1936,49,0.097914,0.024589,0.107961,0.044156,0.091526,1,1
1944,49,0.084289,-0.073105,-0.003909,0.084795,0.025555,1,1
1992,50,0.130307,-0.021733,0.080626,0.041098,0.040677,1,1
1968,50,0.063058,0.022225,0.154471,0.205666,0.105537,1,1
1967,50,0.082074,0.042621,0.082635,0.188440,0.049323,1,1
1963,50,0.059580,0.107016,0.010727,0.103305,0.052805,1,1
1983,50,-0.016992,-0.093626,0.000593,0.037661,0.060419,0,1
1975,50,0.085364,0.051356,0.090736,-0.009058,0.151473,1,1
1974,50,0.019383,0.050000,0.038755,0.073454,0.067119,1,1
1977,50,0.136269,0.121178,0.029718,-0.078567,0.082937,1,0
1965,50,0.055238,-0.012391,-0.016490,0.106996,0.141614,1,1
1995,50,0.004409,0.001623,0.072615,-0.025961,0.096234,1,1
1980,50,0.061822,0.009053,-0.068991,0.052190,-0.060940,1,1
1986,50,0.141592,0.083819,-0.000536,-0.033559,0.085770,1,1
1973,50,-0.076545,0.119437,0.021468,0.121749,0.150794,1,0
1998,50,0.051920,-0.010872,-0.020117,0.044992,-0.018800,1,1
1971,50,0.023640,0.077976,0.125263,0.022871,0.124772,1,1
1997,50,0.171831,0.028747,-0.063724,0.025550,0.040110,1,1
1964,50,0.046456,0.160907,0.063034,0.168351,0.098897,1,0
1996,50,0.002554,0.003635,-0.019082,0.012874,0.103627,1,1
1970,50,0.086081,0.032670,0.102489,0.154442,0.056943,1,1
1981,50,0.022920,-0.080362,0.068043,0.029524,-0.030424,1,1
1991,50,0.112732,-0.006357,0.067641,0.016806,0.121884,1,1
1976,50,-0.095607,0.070424,0.110789,0.204226,0.086322,1,0
1994,50,0.059170,0.031997,0.075558,0.060784,0.061909,1,1
1961,50,-0.028830,0.114391,0.096614,0.045625,0.093989,1,0
1962,50,0.023655,0.042266,0.003900,0.122406,0.135924,1,1
1988,50,0.017062,0.042453,-0.011436,0.064711,0.067829,1,1
1978,50,0.143035,0.107144,0.109366,0.101937,0.076258,1,0
1984,50,0.098297,-0.085920,0.053799,0.053118,0.029523,0,1
1966,50,-0.003010,0.065741,0.130056,0.038069,0.070978,1,1
1985,50,0.022863,-0.023874,0.011624,0.131390,-0.041271,1,1
1982,50,-0.007606,-0.019975,0.041938,0.051876,0.035074,1,1
1990,50,-0.044462,-0.027278,-0.020702,0.068526,0.101794,1,1
1960,50,0.091221,0.077944,-0.003272,0.073767,0.077309,1,1
1972,50,0.003328,0.059248,-0.008665,0.145122,0.080896,1,1
1999,50,0.116758,-0.042841,0.004403,0.049495,0.117039,1,1
1979,50,0.109571,0.071918,0.031851,0.109302,0.050381,1,1
1987,50,0.127611,-0.040244,0.007360,0.038754,0.034439,1,1
1989,50,0.062743,-0.096441,0.060372,-0.055537,0.038157,0,1
1969,50,0.005579,0.108722,0.041906,0.055232,0.067258,1,1
1993,50,0.062724,0.006135,-0.108867,0.048100,0.004616,1,1
2030,51,0.104776,-0.048199,-0.092590,-0.008291,0.060581,1,1
2029,51,0.046465,-0.059805,-0.060051,0.034319,0.066100,1,1
2005,51,0.140567,0.129550,0.097443,0.039641,0.123249,1,0
2035,51,0.007954,-0.083216,-0.017993,-0.012922,0.107434,1,1
2020,51,0.120155,-0.078528,0.071777,0.033024,0.073111,0,1
2038,51,0.057099,0.010047,-0.049279,0.012902,0.082592,1,1
2021,51,0.133154,-0.062147,0.086073,0.173599,0.076361,0,1
2026,51,0.153995,0.061900,0.008514,0.048598,0.092367,1,1
2009,51,0.004358,0.109473,0.181753,0.056592,0.135319,1,0
2013,51,-0.004198,-0.002254,0.087820,0.117010,0.068748,1,1
2007,51,0.086866,0.079991,0.126382,-0.016697,0.121188,1,1
2019,51,0.004913,0.020884,0.036581,-0.006478,0.146019,1,1
2011,51,0.087347,-0.060734,0.124468,0.105683,0.105877,1,1
2001,51,0.039844,0.143149,0.054763,0.125899,0.129907,1,0
2004,51,0.021525,0.141573,0.106024,0.140420,0.088245,1,0
2033,51,0.066120,0.005532,0.046199,0.026567,0.042105,1,1
2006,51,0.029898,0.104679,0.030317,0.049279,0.072387,1,1
2032,51,0.113836,0.009830,-0.016785,0.039531,0.034896,1,1
2002,51,0.092658,0.027573,0.029298,0.076559,0.162931,1,1
2037,51,0.168409,0.016958,0.020398,0.033881,0.044340,1,1
2014,51,0.040012,0.015415,0.060542,0.115598,0.078548,1,1
2000,51,-0.034264,0.113663,0.038572,0.032842,0.037825,1,0
2024,51,0.077828,-0.018523,0.004716,0.068736,0.102610,1,1
2036,51,0.104115,-0.048169,-0.081949,0.010221,0.115675,1,1
2010,51,0.067991,0.145127,0.071082,0.017224,0.078659,1,0
2018,51,0.075115,0.031779,0.069638,0.040202,0.189366,1,1
2003,51,-0.025390,-0.000672,0.081150,0.077403,0.167796,1,1
2016,51,0.031406,0.151755,-0.010248,0.066223,0.093535,1,0
2008,51,0.028120,0.060712,0.049192,0.043081,0.137663,1,1
2034,51,0.014717,-0.114533,0.096713,-0.002804,-0.002153,0,1
2031,51,0.001115,-0.082862,0.000469,0.011204,0.058645,0,1
2027,51,0.073638,-0.071133,0.021653,0.034221,0.173279,1,1
2028,51,0.006410,-0.068878,0.054027,0.044243,0.084102,1,1
2015,51,0.098978,0.080456,0.090580,0.122355,0.024268,1,1
2023,51,0.080465,-0.057775,-0.035689,0.099808,0.126947,1,1
2017,51,0.056911,0.143296,0.053185,0.064545,0.080585,1,0
2039,51,0.069992,0.000603,0.023857,0.050984,0.017315,1,1
2022,51,0.058107,0.006021,0.108278,-0.021772,0.050906,1,1
2012,51,0.101702,0.082247,-0.006362,0.058474,0.089443,1,1
2025,51,0.049456,-0.082572,0.002285,-0.024341,0.101927,1,1
2045,52,-0.020981,0.104756,0.055318,0.104015,0.108063,1,0
2047,52,0.082752,0.057694,-0.035864,0.019114,0.206104,1,1
2044,52,0.084297,0.011636,0.035972,0.179277,0.052750,1,1
2061,52,0.051540,0.012416,-0.050927,0.038008,0.121587,1,1
2043,52,0.063116,0.050936,0.112374,0.142673,0.152815,1,1
2066,52,0.137276,-0.055557,0.017876,0.028748,0.145562,1,1
2076,52,0.094266,-0.027517,-0.056636,0.012971,0.020334,1,1
2040,52,0.068572,0.081765,-0.003763,0.106377,0.029583,1,1
2059,52,0.055025,0.002857,0.081457,0.041552,0.048758,1,1
2067,52,0.058459,-0.048140,0.120805,0.031236,0.042999,1,1
2077,52,0.095765,-0.010862,-0.023934,0.005853,0.095860,1,1
2046,52,0.053471,0.073053,0.030428,0.162045,0.072735,1,1
2053,52,0.077211,0.122042,0.024661,0.048586,0.080195,1,0
2072,52,0.033670,-0.045752,0.041576,0.019445,0.137057,1,1
2057,52,0.034487,0.171996,0.079539,0.087002,0.089692,1,0
2050,52,0.020308,0.011402,0.088667,0.153420,0.064214,1,1
2068,52,0.046579,-0.056467,0.090909,0.057115,-0.004574,1,1
2065,52,0.059733,-0.096920,0.076494,0.064465,0.076167,0,1
2049,52,0.031556,0.014698,0.063926,0.092304,0.142923,1,1
2070,52,0.027512,-0.078027,0.035456,0.072426,0.106477,1,1
2056,52,0.071502,0.029830,0.130663,0.085649,0.140522,1,1
2073,52,0.110541,-0.093028,-0.065037,0.058272,0.084364,0,1
2060,52,0.084270,-0.068022,0.032872,0.035706,0.031566,1,1
2071,52,0.107171,0.030880,0.096118,0.027959,0.085907,1,1
2069,52,-0.003758,0.023822,0.080802,0.051552,0.097833,1,1
2063,52,0.050700,0.049932,0.011691,-0.029508,0.003116,1,1
2041,52,0.024587,0.035598,0.097073,0.111107,0.154893,1,1
2078,52,0.100764,-0.056320,0.027634,0.061754,0.081125,1,1
2064,52,0.081629,-0.110286,-0.061581,0.024235,0.131692,0,1
2074,52,-0.052983,-0.023930,-0.036754,0.057888,0.063756,1,1
2062,52,0.007865,-0.047186,0.065212,0.033933,0.113965,1,1
2048,52,0.035771,0.090273,0.102583,0.042848,0.175134,1,1
2054,52,0.075327,0.154354,0.078700,0.027992,0.143735,1,0
2058,52,0.005512,0.131762,-0.042860,0.013541,0.194962,1,0
2052,52,-0.018532,0.091094,-0.011476,0.081689,-0.030169,1,0
2051,52,0.100048,0.070713,0.080242,0.067197,0.069585,1,1
2079,52,0.062559,0.003915,0.057079,-0.011789,0.074414,1,1
2042,52,0.057681,0.039533,0.174066,0.224809,0.133072,1,1
2075,52,0.086683,-0.096180,0.117475,0.102698,0.022635,0,1
2055,52,0.069728,0.032417,0.047872,0.164905,0.197212,1,1
2092,53,0.095616,0.023012,0.119529,0.044252,0.170251,1,1
2115,53,0.047551,-0.083725,-0.000399,0.057140,0.080778,1,1
2102,53,0.105244,0.000087,-0.048408,0.034158,0.050779,1,1
2089,53,0.115162,0.136112,0.031529,0.024230,0.235630,1,0
2086,53,0.012165,0.145328,0.080328,0.135509,0.125458,1,0
2101,53,0.084702,0.003519,0.056454,0.114871,0.049358,1,1
2108,53,0.052800,-0.033328,-0.020904,0.003573,0.023773,1,1
2091,53,0.075031,0.106483,-0.003139,0.168399,0.044260,1,1
2094,53,0.142302,0.123634,0.108215,0.052727,0.124986,1,0
2114,53,0.116169,0.015412,0.005524,0.041642,0.048999,1,1
2103,53,0.082856,-0.015297,0.029725,-0.018798,0.064847,1,1
2082,53,-0.007219,0.031208,0.034961,0.103804,0.102843,1,1
2119,53,0.150575,-0.017825,-0.028757,0.008406,0.062314,1,1
2105,53,0.121263,-0.070358,-0.097906,0.078522,0.085402,1,1
2107,53,0.100512,-0.115259,0.103474,0.080723,0.040393,0,1
2118,53,0.092591,-0.047710,0.011385,0.077782,0.080162,1,1
2083,53,0.124229,0.161292,0.079926,0.136521,0.110511,1,0
2081,53,0.013262,0.161085,-0.070446,0.091549,0.062850,1,0
2084,53,0.028796,0.015709,0.127476,0.201575,0.178410,1,1
2098,53,0.078303,0.020448,0.032954,0.113591,0.171318,1,1
2095,53,-0.023278,0.014528,0.023680,0.158608,0.076806,1,1
2106,53,0.051116,0.003455,-0.015068,-0.009160,0.105631,1,1
2104,53,0.095114,-0.041026,0.041450,0.012203,0.102667,1,1
2100,53,0.074400,-0.095490,-0.050289,0.055282,0.049438,0,1
2117,53,0.108570,-0.029692,0.090780,0.186842,0.067625,1,1
2080,53,0.045770,0.054737,0.081969,0.092258,0.183121,1,1
2088,53,0.037381,0.033702,-0.002863,0.130345,0.087088,1,1
2109,53,0.096170,-0.023558,0.060577,0.165354,0.073672,1,1
2087,53,0.085052,0.078258,0.102351,0.029496,0.106309,1,1
2112,53,0.089751,-0.086404,0.059315,0.029883,0.114815,0,1
2113,53,0.022133,-0.089693,-0.037367,0.099368,0.102114,0,1
2097,53,-0.057698,0.084191,0.103597,0.162045,0.075898,1,0
2111,53,0.067521,-0.016371,-0.061867,-0.033522,0.065267,1,1
2110,53,0.130525,-0.047499,-0.050993,-0.009657,0.032296,1,1
2093,53,0.042670,0.066507,0.052423,0.095258,0.112877,1,1
2116,53,-0.023757,0.002458,0.047401,0.099602,0.112410,1,1
2085,53,0.055557,0.121616,0.088861,0.070150,0.143010,1,0
2096,53,0.082799,0.019381,0.035444,0.142432,0.099982,1,1
2090,53,0.073917,0.143545,0.108817,0.101865,0.078251,1,0
2099,53,0.031389,0.038558,0.093946,0.066079,0.135610,1,1
2156,54,0.122400,-0.086817,0.039190,0.087218,0.022220,0,1
2147,54,0.148600,-0.050921,-0.052616,0.048547,0.059268,1,1
2129,54,0.080709,-0.124355,0.155202,0.082724,0.095765,1,1
2144,54,0.050865,-0.136247,-0.029076,0.129656,0.187545,0,1
2127,54,0.033413,0.147056,0.102980,0.151972,0.110094,1,0
2146,54,0.177933,0.020044,0.087862,0.018270,0.061433,1,1
2143,54,0.069759,-0.043757,-0.006050,-0.000574,0.129486,1,1
2130,54,0.153700,0.104643,0.017301,0.160787,0.093707,1,1
2122,54,0.083213,0.015476,0.084714,0.173029,0.119118,1,1
2124,54,0.051540,0.035253,0.065460,0.056409,0.195349,1,1
2148,54,0.149133,0.003536,0.045750,0.057335,0.109549,1,1
2139,54,0.080429,0.093535,0.023917,0.016842,0.138412,1,1
2153,54,0.202935,-0.092324,0.019685,0.141964,0.000141,0,1
2150,54,0.105316,-0.039803,0.017960,0.027068,0.185275,1,1
2154,54,0.117989,-0.050984,0.041746,0.154083,0.044847,1,1
2121,54,0.117344,0.092986,0.119745,0.111573,0.072251,1,1
2140,54,0.051409,-0.024394,-0.011151,0.062934,0.062327,1,1
2142,54,0.071145,-0.110788,0.001821,0.050549,0.106092,0,1
2125,54,0.120596,0.063695,0.000394,0.069954,0.136503,1,1
2149,54,0.082651,-0.043427,0.005629,0.114907,0.066110,1,1
2151,54,0.074545,-0.062883,0.066427,0.054254,0.045100,1,1
2132,54,0.044132,0.067274,0.011309,0.069019,0.045636,1,1
2131,54,0.140383,0.029084,0.111272,0.051873,0.150450,1,1
2135,54,-0.027688,0.130044,0.067739,0.039044,0.098864,1,0
2159,54,0.075997,-0.041673,0.069855,0.050593,0.093417,1,1
2123,54,0.067548,0.095572,0.029186,0.068007,0.169494,1,1
2128,54,0.130834,0.171324,0.120804,0.112604,0.150423,1,0
2141,54,0.085456,-0.002293,0.037709,0.034989,0.091605,1,1
2145,54,0.091455,-0.083900,0.045323,0.025028,0.019231,1,1
2136,54,0.036405,0.071714,0.039323,0.075385,0.115413,1,1
2120,54,0.156098,0.060343,0.012952,0.092710,0.144309,1,1
2126,54,0.064964,0.110306,0.048110,0.057494,0.172001,1,1
2134,54,0.001668,-0.018565,0.083586,0.065536,0.109737,1,1
2158,54,-0.007507,-0.008571,-0.052695,0.027997,0.096851,1,1
2133,54,0.149431,0.059437,0.057494,0.040024,0.073927,1,1
2157,54,0.112673,0.022617,0.083634,0.066416,0.062702,1,1
2152,54,0.135393,0.064747,0.008080,0.124428,0.035314,1,1
2155,54,0.122791,0.049352,0.072096,0.044650,0.095180,1,1
2138,54,0.074297,0.087420,0.066712,0.147579,0.017396,1,1
2137,54,0.067785,0.033542,-0.007490,0.103340,0.123783,1,1
2172,55,0.034099,0.056559,0.053800,0.115448,0.034802,1,1
2188,55,0.056590,0.011877,-0.012983,0.010618,0.162826,1,1
2170,55,0.085760,0.054111,0.096032,0.048419,0.236194,1,1
2173,55,0.121069,0.048435,-0.023438,0.180846,0.064807,1,1
2192,55,0.084192,-0.053320,0.087037,0.105801,0.141885,1,1
2187,55,0.012800,0.047798,0.093377,0.042863,0.052149,1,1
2178,55,0.077231,0.050197,0.099385,0.054615,0.169521,1,1
2169,55,0.041000,0.051408,0.082109,0.106063,0.061852,1,1
2183,55,0.179290,-0.091182,0.171925,0.027215,0.016180,0,1
2193,55,0.021247,-0.015482,0.110027,0.064268,0.160522,1,1
2160,55,0.019886,0.088133,0.035910,0.124886,0.102867,1,1
2196,55,0.215838,0.007316,-0.000192,0.060529,0.032739,1,1
2186,55,0.110980,0.037344,0.049578,0.117761,0.037297,1,1
2189,55,0.103881,-0.008956,-0.006338,0.100879,0.069799,1,1
2198,55,0.107244,-0.153687,-0.014844,-0.012217,0.049327,0,1
2161,55,0.128188,0.049117,0.073146,0.050266,0.147388,1,1
2179,55,0.049712,0.026079,0.013006,0.130693,0.173172,1,1
2182,55,0.039450,-0.013146,0.086772,0.082027,0.056518,1,1
2166,55,0.110847,0.115336,0.028000,0.140178,0.089922,1,1
2199,55,0.186644,-0.051926,-0.034923,0.020462,0.052114,0,1
2177,55,0.173806,0.057368,0.065213,0.054674,0.027740,1,1
2163,55,0.053523,0.109863,-0.049975,0.124426,0.100604,1,1
2171,55,0.023858,-0.007370,0.111869,0.050272,0.097144,1,1
2164,55,0.130504,0.151630,0.163026,0.092782,0.107206,1,0
2167,55,0.128074,0.040805,0.118679,0.089586,0.041383,1,1
2191,55,0.148994,-0.002786,0.025169,0.171604,0.075634,1,1
2194,55,0.106249,-0.012509,0.075343,0.015746,0.169063,1,1
2197,55,0.150471,-0.050639,0.043066,0.083181,0.109994,1,1
2181,55,0.041395,-0.064001,0.056222,0.091601,0.016739,1,1
2176,55,0.054404,-0.001823,0.098966,0.068093,-0.026027,1,1
2168,55,0.046720,0.126447,0.099106,0.091482,0.139403,1,0
2174,55,0.076644,0.116613,0.157005,0.118269,0.133232,1,1
2185,55,0.117153,0.034746,-0.057688,0.011056,0.018279,1,1
2175,55,0.069552,0.040662,0.013504,0.063653,0.091335,1,1
2180,55,0.160459,-0.032098,-0.010851,0.074799,0.141781,1,1
2162,55,0.059187,-0.058261,0.110763,0.163835,0.116685,1,1
2165,55,0.125459,0.076025,0.072650,0.079010,0.234055,1,1
2195,55,0.135815,-0.089791,0.029536,0.081510,0.108155,0,1
2190,55,0.049636,-0.072815,0.128212,0.080859,0.051248,1,1
2184,55,0.123984,0.030413,0.108718,0.030124,0.120601,1,1
2202,56,0.164652,0.121563,-0.007472,0.098350,0.091247,1,0
2223,56,0.106488,-0.043085,-0.053461,0.051947,0.146761,1,1
2204,56,0.089119,-0.009449,0.070505,0.102841,0.150217,1,1
2206,56,0.022617,0.135452,0.025121,0.148225,0.158058,1,0
2230,56,0.071354,-0.098562,-0.011309,0.026612,0.104293,0,1
2226,56,0.086259,0.002851,0.031260,0.040126,0.074200,1,1
2224,56,0.063200,-0.056099,0.074722,0.006371,0.098931,1,1
2201,56,0.118765,0.107834,0.094158,0.076763,0.124544,1,1
2234,56,0.073517,-0.083067,-0.001368,0.135106,0.186513,1,1
2236,56,0.138377,0.048125,0.075522,-0.008300,0.130817,1,1
2232,56,0.098940,-0.053786,-0.002497,0.052400,0.092377,1,1
2203,56,0.036228,0.074779,0.008977,0.049713,0.018513,1,1
2219,56,0.131533,0.079017,0.116475,0.084994,0.063251,1,1
2220,56,0.168021,-0.088301,0.037112,0.149182,0.034497,0,1
2233,56,0.169997,-0.055010,0.043707,0.111840,0.062769,1,1
2209,56,0.016162,0.097710,0.119265,0.106948,0.158124,1,0
2238,56,0.097439,-0.069052,-0.026331,0.132553,0.066430,1,1
2214,56,0.074342,-0.007872,0.047674,0.172377,0.156948,1,1
2211,56,0.170660,0.062319,0.147342,0.151064,0.121135,1,1
2229,56,0.128505,-0.012426,-0.003624,0.096352,0.037009,1,1
2217,56,0.080033,0.090557,0.070458,0.147448,0.071012,1,1
2216,56,0.082638,0.064189,0.124277,0.114669,0.010875,1,1
2221,56,0.086265,0.000298,0.054370,0.072530,0.101910,1,1
2237,56,0.115618,-0.023700,0.086108,0.021245,0.053636,1,1
2213,56,0.005282,0.017272,0.095281,0.045599,0.156339,1,1
2210,56,0.148569,0.044641,0.094630,0.036543,0.016162,1,1
2239,56,0.076736,-0.017295,0.055584,0.048070,0.076932,1,1
2225,56,0.155255,-0.095321,0.014108,0.033646,0.138836,0,1
2200,56,0.091876,0.129290,0.025799,0.106148,0.117378,1,0
2218,56,0.118509,0.032301,0.148956,0.047198,0.158563,1,1
2207,56,0.154433,0.171413,0.104377,0.034272,0.104913,1,0
2212,56,0.022685,0.015386,0.077487,0.162481,0.113494,1,1
2205,56,0.022460,0.092502,0.144081,0.143032,0.146290,1,0
2215,56,0.092321,0.043538,0.035397,0.079527,0.056669,1,1
2208,56,0.054130,0.059583,0.102355,0.046793,0.218087,1,1
2222,56,-0.007016,0.001830,0.012182,0.029397,0.028633,1,1
2227,56,0.129135,0.033886,-0.030134,0.102551,0.160470,1,1
2235,56,0.051631,-0.048385,0.057090,-0.007510,0.031552,1,1
2231,56,0.180433,-0.060548,0.055337,-0.019652,0.160882,1,1
2228,56,0.043451,-0.007197,-0.006931,0.089141,0.046683,1,1
2270,57,0.097092,-0.006819,-0.016200,0.158754,0.172218,1,1
2262,57,0.079309,0.031269,0.053050,0.096218,0.106924,1,1
2276,57,0.193805,0.031305,0.016618,0.082133,0.058146,1,1
2248,57,0.108363,0.094439,0.055069,0.152104,0.125721,1,1
2265,57,0.162153,0.062738,0.137274,0.103293,0.153905,1,1
2241,57,0.127527,0.070096,0.151878,0.200943,0.138268,1,1
2271,57,0.183630,0.028620,0.093808,-0.029169,0.139785,1,1
2245,57,0.071005,0.029351,0.052900,0.127745,0.176673,1,1
2250,57,0.147721,0.041778,0.111701,0.088713,0.119116,1,1
2266,57,0.121615,-0.052549,0.145626,0.088346,0.041306,1,1
2260,57,0.097616,-0.059938,0.150261,0.006636,0.171706,1,1
2279,57,0.159151,-0.078485,0.061717,0.035405,0.084097,1,1
2244,57,0.087192,0.055031,0.106434,0.023473,0.171927,1,1
2261,57,0.106917,-0.020068,0.047260,0.032650,0.088617,1,1
2246,57,0.106345,0.039547,0.133259,0.125966,0.060496,1,1
2278,57,0.043965,-0.033199,0.028578,0.023563,0.185285,1,1
2264,57,0.119312,-0.061420,0.003895,0.229669,0.085870,1,1
2240,57,0.089315,0.062594,0.057845,0.074147,0.091207,1,1
2268,57,0.171516,-0.151127,0.076968,0.085724,0.066639,0,1
2272,57,0.135769,-0.153835,0.112211,0.050533,0.104396,0,1
2274,57,0.070869,-0.014301,-0.038305,0.004633,0.148289,1,1
2256,57,0.106522,0.075869,0.017274,0.078704,0.145155,1,1
2273,57,0.215765,-0.156845,0.034462,0.153546,0.074710,0,1
2252,57,-0.023834,0.068235,0.088457,0.151233,0.150703,1,0
2258,57,0.124685,0.087779,0.088764,0.161536,0.131181,1,1
2257,57,0.142169,0.111412,0.114204,0.103797,0.076723,1,1
2259,57,0.114506,0.003406,0.094115,0.118081,0.105341,1,1
2243,57,0.160068,0.021414,0.101079,0.174804,0.108460,1,1
2275,57,0.172535,-0.070602,0.000903,0.130306,0.177255,1,1
2247,57,0.049010,0.027384,0.072814,0.151841,0.095039,1,1
2263,57,0.159318,0.099967,-0.003993,0.043519,0.108687,1,1
2251,57,0.052384,0.050075,0.039219,0.126543,0.122951,1,1
2242,57,0.104736,0.077754,0.068919,0.068285,0.079998,1,1
2253,57,0.114238,0.012304,0.032166,0.124463,0.137144,1,1
2267,57,0.102194,-0.162157,0.062237,0.109349,0.092787,0,1
2254,57,0.107344,0.036450,0.087822,0.159578,0.113532,1,1
2249,57,0.096478,0.138349,0.065463,0.083590,0.206947,1,0
2269,57,0.277661,-0.072706,0.023993,0.082767,0.109636,0,1
2277,57,0.139309,-0.052333,0.041213,0.176839,0.152023,1,1
2255,57,0.073912,0.058030,0.107442,0.143095,0.153993,1,1
2289,58,0.180448,0.097249,0.145925,0.158976,0.123268,1,1
2292,58,0.141895,-0.027565,0.068445,0.122160,0.140942,1,1
2293,58,0.101598,0.040763,0.107159,0.127150,0.149594,1,1
2303,58,0.154555,0.033247,0.045680,0.109631,0.130429,1,1
2305,58,0.171536,0.075809,0.048126,0.018029,0.176338,1,1
2309,58,0.105971,0.029491,0.078095,0.001094,0.045356,1,1
2316,58,0.115208,-0.014511,0.102571,0.137887,0.079510,1,1
2319,58,0.188789,-0.104750,0.020400,0.010499,0.133248,0,1
2288,58,0.071847,0.106577,0.047615,0.102209,0.060183,1,0
2284,58,0.208120,0.055752,0.050363,0.119256,0.076836,1,1
2312,58,0.185579,-0.034594,0.100032,0.117534,0.040141,1,1
2283,58,0.164039,0.120997,0.091159,0.111301,0.136888,1,0
2315,58,0.155095,0.023312,0.084317,0.072186,0.023824,1,1
2308,58,0.118119,-0.014107,-0.041729,0.066121,0.112576,1,1
2306,58,0.139781,-0.013234,0.076173,0.101125,0.135887,1,1
2313,58,0.141277,0.046843,0.063515,0.086692,0.127204,1,1
2314,58,0.182593,-0.051472,0.027782,0.103707,0.081797,1,1
2295,58,0.103850,-0.008780,0.149515,0.231938,0.176295,1,1
2304,58,0.155043,0.031880,0.004005,0.123449,0.105966,1,1
2311,58,0.149832,-0.059555,0.069952,0.157346,0.232885,1,1
2280,58,0.123238,0.154859,0.035545,0.127709,0.110399,1,0
2318,58,0.162498,-0.055592,0.064571,0.023726,0.064861,1,1
2287,58,0.155417,0.087141,0.043346,0.133991,0.202727,1,1
2302,58,0.191081,-0.000528,0.121883,0.156604,0.081273,1,1
2294,58,0.168284,0.069423,0.132285,0.018140,0.205121,1,1
2298,58,0.010263,0.124044,0.163009,0.098841,0.205550,1,0
2291,58,0.025749,0.180479,0.069341,0.111733,0.187068,1,0
2317,58,0.120881,-0.083606,0.126682,0.133300,0.093457,1,1
2310,58,0.086704,-0.108409,0.069831,0.054733,0.087266,0,1
2297,58,0.173464,0.022763,-0.018217,0.044900,0.142241,1,1
2300,58,0.130358,0.084932,0.144011,0.038497,0.057566,1,1
2286,58,0.107724,0.102925,0.094119,0.117984,0.097152,1,1
2285,58,0.187846,0.083393,0.079748,0.166136,0.055557,1,1
2301,58,0.153907,-0.043762,0.028042,0.076330,0.044603,1,1
2290,58,0.074033,0.071098,0.059228,0.127142,0.161345,1,1
2296,58,0.080901,0.085182,0.040743,0.144946,0.109349,1,1
2282,58,0.142838,0.074320,0.082178,0.167175,0.076828,1,1
2299,58,0.178692,0.037048,0.057831,0.031770,0.110922,1,1
2281,58,0.221013,0.021299,0.160958,0.132764,0.200368,1,1
2307,58,0.064792,-0.051635,-0.021136,0.122096,0.073791,1,1
2331,59,0.073750,0.085734,0.072553,0.105942,0.183342,1,1
2352,59,0.270059,-0.032279,0.055106,0.072086,0.060222,0,1
2323,59,0.089698,0.079291,-0.017329,0.115879,0.081516,1,1
2329,59,0.161142,0.043103,0.064297,0.085140,0.103814,1,1
2339,59,0.123051,0.111168,-0.024505,0.091146,0.156682,1,1
2348,59,0.135832,0.032606,-0.007200,0.087925,0.002916,1,1
2335,59,0.141066,0.025041,0.177691,0.152299,0.107451,1,1
2346,59,0.145539,-0.115554,0.060411,0.078616,0.213268,0,1
2341,59,0.089417,-0.045893,0.044166,0.049549,0.187513,1,1
2342,59,0.189977,0.005931,0.102100,0.162970,0.139543,1,1
2326,59,0.113077,0.005447,0.191220,0.066265,0.178269,1,1
2340,59,0.072952,0.011856,-0.008998,0.087249,0.075742,1,1
2338,59,0.145420,0.043138,0.118689,0.083587,0.078736,1,1
2344,59,0.128122,-0.095538,0.033715,0.019276,0.060301,0,1
2330,59,0.185436,0.010856,0.048041,0.101212,0.209831,1,1
2355,59,0.127509,-0.083689,0.040677,0.119184,0.151053,1,1
2320,59,0.150872,0.097305,0.102155,0.068751,0.190840,1,1
2333,59,0.207498,0.085219,0.082362,0.063024,0.198846,1,1
2359,59,0.142566,-0.099164,0.106918,0.093566,0.107526,0,1
2350,59,0.195811,-0.060719,-0.037528,0.080926,0.011821,1,1
2337,59,0.116415,0.088571,0.142825,0.059255,0.074863,1,1
2321,59,0.125605,0.065143,0.116978,0.115507,0.102697,1,1
2334,59,0.102875,0.063639,0.137598,0.095469,0.189071,1,1
2332,59,0.064213,0.067188,0.131898,0.205142,0.195527,1,1
2343,59,0.166296,-0.060086,0.021098,0.052343,0.213090,1,1
2353,59,0.205630,-0.014662,0.070678,0.079836,0.032846,1,1
2347,59,0.118013,-0.104538,-0.001398,0.047642,0.098835,0,1
2357,59,0.225281,-0.165340,0.037723,0.079016,0.050431,0,1
2322,59,0.105490,0.041853,0.140924,0.105310,0.089882,1,1
2356,59,0.172015,-0.020030,0.071154,0.088841,0.116022,1,1
2327,59,0.181406,0.042220,0.080491,0.040711,0.090057,1,1
2358,59,0.067806,0.044226,0.174858,0.179343,0.058638,1,1
2328,59,0.210213,0.002115,0.113200,0.198379,0.143143,1,1
2325,59,0.196681,0.087591,0.060382,0.031555,0.172287,1,1
2351,59,0.213693,-0.007054,0.042214,0.089611,0.091220,1,1
2336,59,0.091731,0.056946,0.044387,0.139260,0.149505,1,1
2354,59,0.186171,0.033296,0.074089,-0.017186,0.114286,1,1
2324,59,0.135643,0.068145,0.089129,0.026931,0.276997,1,1
2349,59,0.124098,-0.027198,0.015032,0.053740,0.105426,1,1
2345,59,0.170874,-0.001297,0.040424,0.094936,0.054271,1,1
2383,60,0.121428,-0.087197,0.127242,0.096223,0.113304,0,1
2366,60,0.164662,0.069961,0.135992,0.172031,0.103589,1,1
2391,60,0.188558,-0.062423,0.044813,0.149557,0.119876,1,1
2368,60,0.190647,0.068216,0.085988,0.111208,0.143854,1,1
2379,60,0.158123,0.068601,0.163121,0.088663,0.228418,1,1
2389,60,0.191901,-0.107999,-0.000922,0.069985,0.127131,0,1
2367,60,0.187138,0.076818,0.183156,0.117924,0.209228,1,1
2394,60,0.076608,0.018886,0.055085,0.108915,0.135835,1,1
2396,60,0.036949,-0.087284,0.069951,0.180911,0.020973,0,1
2364,60,0.135918,-0.028379,0.061526,0.157821,0.187590,1,1
2369,60,0.140062,0.102032,0.095120,0.168379,0.135111,1,1
2373,60,0.169353,-0.028666,0.039203,0.101309,0.140302,1,1
2392,60,0.117914,-0.036385,0.045419,0.055269,0.152683,1,1
2374,60,0.146777,0.024332,0.088807,0.144469,0.080349,1,1
2393,60,0.090029,-0.054851,-0.062157,-0.060545,0.062953,1,1
2399,60,0.285181,-0.010293,0.031398,0.128457,0.213503,0,1
2385,60,0.123189,-0.066538,0.078387,0.192960,0.069415,1,1
2371,60,0.062689,0.102476,-0.008298,0.123396,0.154659,1,0
2365,60,0.171862,0.019774,0.112561,0.098330,0.103740,1,1
2387,60,0.211752,-0.026926,0.069912,0.014240,0.112999,1,1
2363,60,0.203366,0.043199,0.000216,0.116915,0.122803,1,1
2370,60,0.068939,0.024020,0.151365,0.199957,0.151892,1,1
2362,60,0.079084,-0.003706,0.057963,0.044031,0.029482,1,1
2375,60,0.116057,0.003727,-0.008103,0.147143,0.296860,1,1
2398,60,0.202041,0.005672,0.026107,0.064859,0.071351,1,1
2382,60,0.179876,-0.045585,-0.053232,0.085132,0.133786,1,1
2386,60,0.201915,-0.087599,0.075222,0.107075,0.085551,0,1
2376,60,0.107584,-0.057570,0.099780,0.088365,0.095484,1,1
2384,60,0.163930,0.021240,0.054781,0.167206,0.124250,1,1
2395,60,0.123371,-0.026704,0.094814,0.100419,0.061884,1,1
2377,60,0.119715,0.150386,0.109378,0.191513,0.193038,1,0
2388,60,0.132825,-0.084665,0.018255,0.109774,0.065194,1,1
2372,60,0.210329,0.118770,0.076632,0.158635,0.094353,1,0
2378,60,0.086210,0.006773,0.066475,0.192131,0.147997,1,1
2361,60,0.155143,0.083995,0.066283,0.154716,0.156828,1,1
2360,60,0.216742,0.053096,0.050321,0.230406,0.180774,1,1
2390,60,0.162288,0.045477,0.137957,0.067627,0.062794,1,1
2381,60,0.148632,-0.013418,0.093324,-0.027262,0.192613,1,1
2397,60,0.027820,-0.039506,0.081448,0.168673,0.089546,1,1
2380,60,0.244644,-0.078484,-0.009701,0.062334,0.073348,0,1
2430,61,0.164155,-0.038025,0.118472,0.124061,0.089125,1,1
2419,61,0.144912,0.008433,0.080197,0.134396,0.173288,1,1
2407,61,0.079169,0.080481,0.084229,0.152894,0.158615,1,1
2421,61,0.060746,0.003587,0.106643,0.110839,0.150477,1,1
2420,61,0.168985,-0.031209,0.048385,0.106556,0.046583,1,1
2401,61,0.133577,0.119389,-0.009543,0.147645,0.116559,1,1
2437,61,0.174464,-0.104442,0.100663,0.133640,0.136899,0,1
2428,61,0.180686,-0.041020,0.039052,0.131725,0.123379,1,1
2417,61,0.231173,0.014769,0.206717,0.099805,0.140568,1,1
2422,61,0.151898,0.009341,0.098559,0.085412,0.212880,1,1
2427,61,0.095544,-0.002179,0.080667,0.086554,0.080654,1,1
2403,61,0.200318,0.037734,0.130680,0.238843,0.138858,1,1
2439,61,0.171259,-0.059339,0.045236,0.082281,0.093601,1,1
2410,61,0.156566,0.085956,0.028384,0.057881,0.146514,1,1
2413,61,0.245870,0.133664,0.045797,0.094089,0.160379,1,0
2423,61,0.059274,-0.014639,0.023656,0.058299,0.222618,1,1
2402,61,0.151748,-0.002328,0.114250,0.020725,0.199129,1,1
2432,61,0.149965,-0.049621,0.052627,0.060095,0.099899,1,1
2404,61,0.099142,0.087819,0.163511,0.078691,0.084394,1,1
2429,61,0.162968,-0.071077,0.090500,0.062579,0.114087,1,1
2416,61,0.147417,0.130818,0.129859,0.014492,0.194247,1,0
2415,61,0.139362,0.029475,0.114453,0.136938,0.222119,1,1
2435,61,0.169454,0.019467,0.105594,0.154522,0.105767,1,1
2409,61,0.137528,0.044750,0.212378,0.062564,0.152033,1,1
2424,61,0.230200,-0.092612,0.114298,0.116513,0.143810,0,1
2425,61,0.116062,-0.045950,0.131796,0.074779,0.131823,1,1
2411,61,0.195868,0.082108,0.079069,0.118431,0.132432,1,1
2431,61,0.140923,-0.077771,0.098526,0.058784,0.014427,1,1
2433,61,0.162942,-0.014981,0.054521,0.155470,0.135426,1,1
2438,61,0.123294,-0.064858,0.088041,0.080479,-0.007148,1,1
2426,61,0.250523,-0.063641,0.014088,0.025591,0.179556,0,1
2414,61,0.066048,0.100855,0.160177,0.156856,0.121168,1,0
2405,61,0.079249,0.028462,0.126577,0.079987,0.196825,1,1
2436,61,0.196108,-0.019357,0.056744,0.106764,0.107196,1,1
2434,61,0.144603,0.072113,0.093044,0.054021,0.084248,1,1
2418,61,0.110493,0.046202,0.116714,0.171732,0.090820,1,1
2406,61,0.100975,0.085628,0.151238,0.078355,0.124766,1,1
2412,61,0.132780,0.019107,0.115963,0.140509,0.191165,1,1
2400,61,0.168006,0.040725,0.116915,0.095704,0.143095,1,1
2408,61,0.089327,-0.000183,0.139199,0.183244,0.055436,1,1
2464,62,0.125951,-0.009901,0.057831,0.133763,0.017445,1,1
2471,62,0.249990,-0.030074,0.014127,0.054772,0.071947,1,1
2449,62,0.173237,0.022252,0.146536,0.097027,0.149246,1,1
2450,62,0.115298,0.084292,0.078979,0.143932,0.146947,1,1
2448,62,0.174737,0.020015,0.084642,0.183799,0.172023,1,1
2457,62,0.190400,0.062341,0.059933,0.089971,0.195570,1,1
2451,62,0.185351,0.002249,0.144943,0.166277,0.168046,1,1
2443,62,0.182235,0.047449,0.086794,0.161584,0.218438,1,1
2453,62,0.135910,0.053058,0.008214,0.085591,0.207850,1,1
2455,62,0.134623,0.072966,0.125304,0.245707,0.189709,1,1
2445,62,0.056933,0.109565,0.108358,0.144234,0.153926,1,0
2459,62,0.157066,-0.003482,0.115779,0.088281,0.088958,1,1
2479,62,0.211220,-0.025557,0.096818,0.057741,0.098560,1,1
2474,62,0.186684,-0.017217,0.122271,0.096888,0.084162,1,1
2461,62,0.160221,0.003903,0.158639,0.027398,0.155348,1,1
2446,62,0.185409,0.061214,0.163107,0.086085,0.201375,1,1
2456,62,0.165448,0.127933,0.073216,0.077968,0.103785,1,0
2465,62,0.152172,-0.054491,0.105295,0.136922,0.147240,1,1
2477,62,0.169453,-0.047605,0.087247,0.053575,0.091658,1,1
2458,62,0.094392,0.140704,0.112265,0.083498,0.137002,1,0
2460,62,0.137488,-0.124186,0.054842,0.035856,0.234767,0,1
2463,62,0.169007,-0.023803,0.145980,0.089770,0.030926,1,1
2466,62,0.177215,-0.061403,0.033348,0.049717,0.055109,1,1
2441,62,0.141815,-0.012244,0.117286,0.089588,0.120645,1,1
2470,62,0.164005,-0.003629,0.108534,0.043783,0.056760,1,1
2478,62,0.170598,-0.069434,0.040104,0.046307,0.211728,1,1
2473,62,0.225115,-0.042754,0.068067,0.117279,0.117234,1,1
2472,62,0.204280,-0.028926,0.064112,0.174633,0.119795,1,1
2475,62,0.138348,-0.010546,-0.016860,0.073915,0.097593,1,1
2440,62,0.107692,0.054342,0.048924,0.077038,0.122228,1,1
2476,62,0.180518,0.047210,0.082635,0.105493,0.132582,1,1
2447,62,0.146256,0.058946,0.135047,0.113905,0.125534,1,1
2452,62,0.126784,0.055321,0.227725,0.115711,0.128883,1,1
2454,62,0.152743,0.126203,0.082175,0.191202,0.165976,1,0
2467,62,0.160866,0.059620,-0.023592,0.115275,0.074155,1,1
2442,62,0.188964,0.014264,0.073638,0.016268,0.162015,1,1
2468,62,0.171032,0.001140,0.100274,0.085918,0.159885,1,1
2462,62,0.207854,-0.021335,0.064450,0.126509,0.084413,1,1
2469,62,0.152454,0.011539,0.043560,0.052446,0.051125,1,1
2444,62,0.006112,0.008360,0.171431,0.165535,0.154655,1,0
2513,63,0.193662,-0.054435,0.025317,0.070536,0.254687,1,1
2505,63,0.120905,-0.087177,0.122609,0.002495,0.078983,0,1
2482,63,0.141164,-0.053122,0.194798,0.119660,0.161275,1,1
2485,63,0.143802,-0.004394,0.090886,0.261695,0.198480,1,1
2480,63,0.132568,0.151685,0.083978,0.128388,0.181235,1,0
2508,63,0.230983,-0.046049,0.176890,0.030880,0.115541,1,1
2488,63,0.243963,0.040382,0.136541,0.157297,0.189529,1,1
2489,63,0.202643,0.062196,0.093855,0.093186,0.110507,1,1
2498,63,0.129540,0.048365,0.072911,0.052089,0.188400,1,1
2495,63,0.141401,0.030176,0.148256,0.133943,0.145258,1,1
2483,63,0.176028,0.060550,0.122109,0.120340,0.101464,1,1
2493,63,0.144899,0.070139,0.005528,0.038179,0.159202,1,1
2503,63,0.193382,-0.002604,0.025579,0.060857,0.164467,1,1
2490,63,0.219929,0.085448,0.077354,0.188376,0.188018,1,1
2515,63,0.170392,-0.027771,0.104803,0.144753,0.100216,1,1
2496,63,0.174382,0.091117,0.155356,0.144529,0.216709,1,1
2506,63,0.222231,0.019468,-0.001274,0.029062,0.111315,1,1
2492,63,0.117418,-0.010208,0.219059,0.068000,0.093280,1,1
2516,63,0.141200,0.002463,0.118510,0.090335,0.096000,1,1
2507,63,0.143856,-0.063494,0.134607,0.090015,0.136879,1,1
2511,63,0.290768,-0.020715,0.069512,0.171181,0.087973,0,1
2499,63,0.092107,0.031790,0.130824,0.179970,0.102370,1,1
2486,63,0.182611,0.058311,0.087397,0.015442,0.148674,1,1
2497,63,0.066111,0.110801,0.130942,0.189062,0.200473,1,0
2484,63,0.136402,0.044498,0.087953,0.072789,0.184717,1,1
2514,63,0.135683,-0.022979,-0.005793,0.113434,0.128169,1,1
2500,63,0.168180,0.010867,0.058695,0.003923,0.083706,1,1
2487,63,0.165818,0.067107,0.083113,0.282605,0.169547,1,1
2512,63,0.150362,-0.025449,0.149010,0.171705,0.190370,1,1
2519,63,0.106730,0.022216,0.093577,0.127701,0.111900,1,1
2518,63,0.126150,-0.036311,-0.012686,0.075023,0.160005,1,1
2517,63,0.105203,-0.054518,0.080815,-0.009186,0.113136,1,1
2481,63,0.123880,0.130632,0.144846,0.099530,0.097935,1,0
2510,63,0.136166,-0.016573,0.124264,0.102078,0.133206,1,1
2502,63,0.102658,-0.069549,0.003252,0.091056,0.110429,1,1
2494,63,0.211777,0.022389,0.101516,0.189772,0.230695,1,1
2509,63,0.111325,-0.070613,0.115503,0.115101,0.122775,1,1
2491,63,0.229625,-0.044030,0.054628,0.090452,0.193108,1,1
2501,63,0.226533,0.007769,0.100008,0.076114,0.198000,1,1
2504,63,0.115591,0.006812,0.061036,0.105959,0.085776,1,1
2526,64,0.225095,0.136809,0.143381,0.202616,0.251687,1,0
2520,64,0.076943,0.058349,0.179777,0.096538,0.212697,1,1
2549,64,0.165190,-0.095798,0.031309,0.097131,0.121790,0,1
2527,64,0.271316,0.115418,0.192492,0.235675,0.200342,1,0
2533,64,0.120523,0.034909,0.129656,0.143835,0.208531,1,1
2550,64,0.242989,0.020390,0.071492,0.124425,0.075598,1,1
2538,64,0.188824,0.098570,0.137449,0.170659,0.194604,1,1
2553,64,0.254223,-0.042966,0.067930,0.020471,0.154737,1,1
2543,64,0.229463,-0.043841,0.105646,0.013528,0.132558,1,1
2540,64,0.228503,-0.021918,0.144619,0.059761,0.090305,1,1
2524,64,0.167281,0.037159,0.093317,0.199896,0.123245,1,1
2536,64,0.232348,0.058529,0.052219,0.184478,0.199862,1,1
2531,64,0.237674,0.081684,0.107877,0.168058,0.242190,1,1
2552,64,0.257526,-0.023969,0.040569,0.118414,0.173154,1,1
2534,64,0.209668,0.010348,0.079785,0.220644,0.205966,1,1
2559,64,0.172900,-0.066453,0.070253,0.098107,0.066554,1,1
2529,64,0.150664,-0.043726,0.086851,0.096527,0.090553,1,1
2537,64,0.186047,0.113913,0.180229,0.109338,0.126237,1,1
2532,64,0.067722,0.137606,0.106458,0.142887,0.307118,1,0
2546,64,0.084846,-0.013159,0.033209,0.108962,0.231112,1,1
2551,64,0.156500,-0.090294,0.138578,0.194646,0.096853,0,1
2535,64,0.201663,0.061890,0.148697,0.150393,0.205092,1,1
2545,64,0.140528,-0.027864,0.091366,0.071311,0.194798,1,1
2557,64,0.191113,0.005082,0.044731,0.168638,0.154561,1,1
2528,64,0.093021,0.085212,0.108761,0.140021,0.239877,1,1
2530,64,0.147429,-0.027997,0.132144,0.093847,0.216795,1,1
2542,64,0.159951,-0.066345,0.098554,0.051918,0.178539,1,1
2541,64,0.127007,-0.064246,0.093999,0.102541,0.115701,1,1
2556,64,0.251809,-0.011009,0.125339,0.078672,0.135687,1,1
2522,64,0.162088,0.111827,0.077161,0.099869,0.173544,1,1
2555,64,0.203663,-0.016895,-0.038211,0.064401,0.163901,1,1
2521,64,0.113137,0.066870,0.096872,0.163970,0.153045,1,1
2547,64,0.199956,-0.048489,0.088100,0.149788,0.075391,1,1
2544,64,0.136743,-0.096025,0.023566,0.089301,0.084396,0,1
2554,64,0.103350,-0.053730,0.082191,0.126838,-0.003782,1,1
2548,64,0.263581,-0.012357,0.104713,0.110008,0.111645,1,1
2558,64,0.169771,0.048765,0.099678,0.126749,0.060633,1,1
2539,64,0.243286,0.095256,0.103836,0.142731,0.250179,1,1
2525,64,0.236744,0.026690,0.135742,0.122005,0.239779,1,1
2523,64,0.149917,0.025201,0.058053,0.044680,0.189368,1,1
2578,65,0.212650,0.023420,0.131275,0.124377,0.219422,1,1
2560,65,0.221788,0.100770,0.169499,0.158051,0.202293,1,1
2594,65,0.183331,0.023416,0.100191,0.059600,0.109166,1,1
2596,65,0.245453,-0.015545,0.118354,0.043784,0.142337,1,1
2585,65,0.189062,0.007142,0.071030,0.018346,0.176888,1,1
2595,65,0.239029,-0.042806,0.044481,0.141345,0.099630,1,1
2568,65,0.171400,0.081343,0.159312,0.120723,0.204132,1,1
2591,65,0.176488,0.048762,-0.046013,0.208991,0.140922,1,1
2575,65,0.234526,0.074667,0.065790,0.083016,0.145597,1,1
2563,65,0.231997,0.035214,0.100360,0.201236,0.121087,1,1
2564,65,0.205303,0.045515,0.097447,0.071830,0.157406,1,1
2584,65,0.192918,-0.031708,0.074527,0.139812,0.224917,1,1
2589,65,0.155492,0.016836,0.043517,0.186522,0.077894,1,1
2587,65,0.274535,-0.000579,0.047239,0.110024,0.161109,1,1
2597,65,0.136130,-0.080851,0.064345,0.154477,0.168262,1,1
2561,65,0.166126,-0.024281,0.078989,0.138680,0.199957,1,1
2593,65,0.111719,-0.078710,-0.007395,0.091083,0.229823,0,1
2599,65,0.217996,-0.015079,0.135734,0.129181,0.145003,1,1
2570,65,0.285716,0.053744,0.110008,0.132436,0.081418,1,1
2576,65,0.218850,0.072313,0.187273,0.112328,0.178076,1,1
2569,65,0.142586,0.098013,0.027091,0.162928,0.175201,1,1
2586,65,0.154663,-0.031186,0.058968,0.131611,0.090187,1,1
2579,65,0.255644,0.001070,0.086471,0.124542,0.142295,1,1
2573,65,0.310919,0.028812,0.052565,0.157137,0.240906,1,1
2592,65,0.235428,-0.077620,0.085803,0.080875,0.105807,0,1
2590,65,0.240880,0.085841,0.160392,0.120590,0.122253,1,1
2583,65,0.159860,-0.059892,0.080788,0.068301,0.143148,1,1
2580,65,0.212351,0.009695,0.152106,0.154673,0.144752,1,1
2574,65,0.158160,0.001083,0.073605,0.077815,0.190767,1,1
2572,65,0.141263,0.076686,0.078259,0.216766,0.188723,1,1
2598,65,0.077200,-0.068987,0.064534,0.087153,0.118010,0,1
2588,65,0.224936,-0.020444,0.093514,0.174308,0.199093,1,1
2577,65,0.165028,0.080926,0.044295,0.220865,0.132232,1,1
2581,65,0.225266,-0.060701,0.066969,0.127887,0.138723,1,1
2567,65,0.157121,0.144623,0.065858,0.130052,0.236737,1,0
2562,65,0.137640,0.063193,0.134748,0.133019,0.208898,1,1
2571,65,0.198872,0.060718,0.058031,0.039094,0.209694,1,1
2582,65,0.160573,-0.061398,0.048960,0.095803,0.122862,1,1
2565,65,0.203303,0.119970,0.140676,0.070079,0.158763,1,0
2566,65,0.223160,0.110224,0.156380,0.079894,0.143752,1,1
2620,66,0.178406,-0.002570,0.058625,0.089854,0.193456,1,1
2610,66,0.210371,0.021793,0.234089,0.236893,0.140609,1,1
2629,66,0.195735,-0.067258,0.087286,0.052445,0.191134,1,1
2606,66,0.201381,0.009031,0.107455,0.102697,0.068279,1,1
2611,66,0.164598,0.109755,0.179798,0.193228,0.093405,1,1
2603,66,0.169635,0.081666,0.117254,0.043011,0.205996,1,1
2617,66,0.154160,-0.011417,0.171844,0.144991,0.268581,1,1
2631,66,0.177282,0.020532,0.171710,0.088562,0.096865,1,1
2608,66,0.192902,0.011527,0.168601,0.142761,0.276580,1,1
2637,66,0.230337,0.024489,0.047495,0.041562,0.125254,1,1
2618,66,0.146699,0.056544,0.112201,0.263332,0.195757,1,1
2627,66,0.208650,-0.037465,0.050901,0.116836,0.142826,1,1
2621,66,0.105738,-0.038848,0.153291,0.065195,0.044476,1,1
2602,66,0.198921,0.059400,0.130824,0.094002,0.198380,1,1
2630,66,0.213667,0.018645,0.048144,0.057694,0.152882,1,1
2604,66,0.215434,0.082937,0.082643,0.112593,0.192927,1,1
2600,66,0.192573,0.050853,0.146108,0.209786,0.168424,1,1
2601,66,0.201856,0.052287,0.127612,0.211776,0.161069,1,1
2635,66,0.249212,-0.117414,0.078001,0.127782,0.105250,0,1
2625,66,0.259115,0.053241,0.111876,0.039188,0.092292,1,1
2607,66,0.176394,-0.035893,0.042011,0.092732,0.163405,1,1
2632,66,0.229113,0.026769,0.101926,0.084294,0.078188,1,1
2624,66,0.112533,-0.043789,0.143487,0.167325,0.075987,1,1
2622,66,0.232935,-0.017310,0.032164,0.037531,0.141019,1,1
2638,66,0.239676,-0.036877,0.167313,0.109657,0.106844,1,1
2636,66,0.256766,-0.134612,0.012030,0.091574,0.216652,0,1
2609,66,0.155058,0.012306,0.115041,0.097430,0.130792,1,1
2614,66,0.226328,0.070369,0.187504,0.234178,0.203992,1,1
2613,66,0.181342,0.014092,0.042311,0.187542,0.086812,1,1
2616,66,0.124597,0.065476,0.163923,0.057932,0.131240,1,1
2633,66,0.131272,-0.073727,0.024960,0.061941,0.061685,0,1
2639,66,0.158332,0.005399,0.139969,0.112332,0.173967,1,1
2612,66,0.137310,0.091558,0.084211,0.121819,0.184440,1,1
2623,66,0.186030,-0.042970,0.090033,-0.021617,0.154760,1,1
2619,66,0.215242,-0.007120,0.109205,0.132301,0.123609,1,1
2634,66,0.139700,0.011967,0.069358,0.098871,0.100752,1,1
2626,66,0.250095,-0.036501,0.026001,0.092242,0.169860,1,1
2615,66,0.216939,0.007120,0.189773,0.132690,0.175796,1,1
2605,66,0.187011,-0.041815,0.185860,0.273657,0.200446,1,1
2628,66,0.204473,-0.015583,0.146507,0.116281,0.122288,1,1
2650,67,0.120824,0.101877,0.081844,0.171762,0.171159,1,0
2664,67,0.197365,0.000054,0.111700,0.057310,0.132809,1,1
2676,67,0.178503,-0.000498,0.127817,0.144067,0.106829,1,1
2645,67,0.217116,0.040981,0.162892,0.125523,0.230013,1,1
2673,67,0.229191,-0.045688,0.179686,0.124085,0.144891,1,1
2654,67,0.240527,0.086078,0.077286,0.216654,0.208143,1,1
2672,67,0.224716,-0.102460,0.092018,0.098314,0.172712,0,1
2660,67,0.122316,-0.074699,-0.015930,0.118951,0.065659,0,1
2655,67,0.176101,0.003493,0.130960,0.155043,0.122189,1,1
2644,67,0.153040,0.082460,0.076608,0.134217,0.201175,1,1
2671,67,0.289302,-0.047873,0.051894,0.098194,0.134179,1,1
2667,67,0.284702,-0.028553,0.037190,0.075975,0.165326,1,1
2640,67,0.260877,0.081688,0.097904,0.149687,0.254432,1,1
2657,67,0.191782,0.006250,0.074170,0.234751,0.208940,1,1
2648,67,0.136061,0.009312,0.173084,0.235095,0.113071,1,1
2677,67,0.266341,-0.074439,0.073250,0.087279,0.094324,1,1
2669,67,0.247074,-0.017792,0.078594,0.094107,0.057305,1,1
2658,67,0.230203,0.110274,0.087846,0.112108,0.268355,1,1
2646,67,0.157631,0.106080,0.092687,0.103865,0.178153,1,1
2663,67,0.207810,-0.004711,0.136812,0.101007,0.108604,1,1
2643,67,0.205717,0.119924,0.128584,0.148388,0.160469,1,1
2679,67,0.252783,-0.035105,0.000355,0.146823,0.133913,1,1
2670,67,0.241525,-0.006210,0.096495,0.060832,0.202633,1,1
2666,67,0.286499,-0.034154,0.109698,0.151229,0.121378,1,1
2662,67,0.220867,0.078677,0.148877,0.126635,0.188194,1,1
2642,67,0.172577,0.069897,0.172380,0.229980,0.229334,1,1
2668,67,0.207713,-0.009604,0.152589,0.092751,0.091746,1,1
2656,67,0.181604,0.089391,0.169658,0.140654,0.181531,1,1
2675,67,0.227589,0.059543,0.027380,0.104839,0.156645,1,1
2674,67,0.127524,-0.095265,0.157594,0.089095,0.119095,0,1
2652,67,0.259637,0.077396,0.089123,0.177707,0.249108,1,1
2653,67,0.154190,0.093661,0.171167,0.129972,0.136593,1,1
2665,67,0.185650,0.090453,0.122561,0.170488,0.170168,1,1
2661,67,0.177203,-0.009713,0.043124,0.203447,0.149897,1,1
2641,67,0.213211,0.109567,0.034356,0.076599,0.242704,1,1
2659,67,0.171637,0.114594,0.068742,0.217743,0.157698,1,1
2678,67,0.140106,-0.021014,0.010360,0.185738,0.133435,1,1
2649,67,0.184075,0.132484,0.072842,0.229056,0.144392,1,0
2651,67,0.253636,-0.008085,0.098170,0.193868,0.078975,1,1
2647,67,0.218321,0.063954,0.110712,0.248664,0.236404,1,1
2713,68,0.193251,0.035271,0.046818,0.086745,0.118957,1,1
2715,68,0.236110,0.025012,0.057812,0.101867,0.093746,1,1
2706,68,0.159028,-0.158239,0.168948,0.099564,0.164843,0,1
2718,68,0.225361,0.048828,0.060342,0.104805,0.158230,1,1
2699,68,0.193013,0.001066,0.162055,0.123229,0.222908,1,1
2694,68,0.109124,-0.002758,0.112997,0.173194,0.197837,1,1
2691,68,0.215765,0.029850,0.133134,0.206976,0.199175,1,1
2700,68,0.199239,-0.129420,0.171056,0.083800,0.165940,0,1
2683,68,0.306128,0.024908,0.125277,0.146421,0.198972,1,1
2711,68,0.162429,-0.057687,0.022569,0.010023,0.200587,1,1
2692,68,0.250718,0.071743,0.192413,0.096971,0.245210,1,1
2717,68,0.195822,-0.005383,0.044967,0.118307,0.128736,1,1
2696,68,0.138305,0.051682,0.101626,0.212749,0.223200,1,1
2697,68,0.258075,0.006289,0.100969,0.176355,0.147441,1,1
2680,68,0.174087,0.055120,0.226532,0.092483,0.225561,1,1
2702,68,0.269162,0.033532,0.043647,0.090314,0.070013,1,1
2701,68,0.168227,0.002566,0.024405,0.210933,0.186292,1,1
2709,68,0.136266,-0.060683,0.123024,0.189136,0.106607,1,1
2710,68,0.232418,0.010298,0.061614,0.161766,0.118579,1,1
2688,68,0.191400,0.085322,0.068988,0.179053,0.269360,1,1
2707,68,0.175770,-0.036037,0.052873,0.029570,0.235305,1,1
2708,68,0.243102,-0.049176,0.131301,0.109422,0.163565,1,1
2698,68,0.298212,0.046180,0.138971,0.160071,0.144163,1,1
2681,68,0.219274,0.133240,0.057641,0.201327,0.143013,1,0
2687,68,0.213537,0.091057,0.082608,0.066558,0.190311,1,1
2703,68,0.136561,0.028960,0.148810,0.098336,0.175242,1,1
2684,68,0.135947,0.113930,0.186979,0.156151,0.221008,1,0
2705,68,0.200506,-0.020244,0.028821,0.030775,0.142374,1,1
2689,68,0.312957,0.075403,0.181681,0.211371,0.117929,1,1
2712,68,0.219762,-0.004441,0.079209,0.128579,0.185568,1,1
2682,68,0.049924,0.146228,0.180895,0.163607,0.262573,1,0
2714,68,0.208216,-0.037954,0.017727,0.050015,0.107267,1,1
2693,68,0.222091,0.067982,0.210585,0.173072,0.236485,1,1
2695,68,0.214473,0.011879,0.149227,0.109038,0.169488,1,1
2716,68,0.182791,-0.081140,0.068211,0.127684,0.167976,1,1
2685,68,0.232742,0.095158,0.067837,0.214209,0.121473,1,1
2686,68,0.178610,0.125952,0.197869,0.241829,0.226267,1,0
2704,68,0.158369,-0.029774,0.087322,0.051614,0.129102,1,1
2690,68,0.176613,0.105793,0.152333,0.201792,0.145493,1,1
2719,68,0.268695,-0.021546,0.160478,0.173572,0.109536,1,1
2755,69,0.209323,-0.136620,0.045128,0.167892,0.185057,0,1
2727,69,0.135172,-0.028360,0.132193,0.199235,0.119117,1,1
2733,69,0.321123,0.004126,0.211281,0.245879,0.208085,1,1
2732,69,0.277379,0.112073,0.114226,0.098455,0.189143,1,0
2735,69,0.245688,-0.011230,0.242768,0.106644,0.193419,1,1
2725,69,0.151299,-0.004243,0.031530,0.224309,0.073571,1,1
2748,69,0.117388,0.042645,0.121939,0.135102,0.206808,1,1
2749,69,0.275719,0.033407,0.108309,0.088726,0.184719,1,1
2750,69,0.207416,-0.003454,0.016951,0.158534,0.220708,1,1
2722,69,0.150702,0.089755,0.223606,0.199310,0.243019,1,1
2759,69,0.155032,-0.054644,-0.000863,0.058823,0.240843,1,1
2752,69,0.214915,-0.011453,0.120033,0.106406,0.160264,1,1
2741,69,0.130171,0.052144,0.088399,0.043221,0.049569,1,1
2730,69,0.156397,0.057397,0.131892,0.229646,0.203508,1,1
2737,69,0.244318,0.051918,0.066383,0.224091,0.181852,1,1
2747,69,0.214161,0.069574,0.125745,0.159575,0.131269,1,1
2731,69,0.246021,0.066852,0.170809,0.278604,0.201779,1,1
2738,69,0.248909,0.132408,0.137410,0.161068,0.184700,1,0
2724,69,0.255824,0.098872,0.173219,0.244936,0.196669,1,1
2753,69,0.280710,0.046870,0.046282,0.091820,0.258188,1,1
2740,69,0.209247,-0.118100,0.120376,0.166188,0.145618,0,1
2756,69,0.169627,0.011813,0.080764,0.144494,0.142496,1,1
2744,69,0.095853,-0.011981,0.137634,0.202138,0.128435,1,1
2720,69,0.191405,0.067058,0.144259,0.188294,0.166330,1,1
2743,69,0.294987,-0.021304,0.099870,0.210614,0.202732,1,1
2721,69,0.243774,0.069159,0.210186,0.177214,0.152434,1,1
2757,69,0.189851,0.040565,0.125105,0.109888,0.095919,1,1
2736,69,0.140734,0.050742,0.124898,0.193038,0.234203,1,1
2758,69,0.230955,-0.087558,0.135256,0.127969,0.166735,0,1
2729,69,0.228483,0.008001,0.119921,0.127313,0.188048,1,1
2734,69,0.138410,0.018508,0.209922,0.199077,0.188109,1,1
2746,69,0.219389,0.051091,0.102947,0.066504,0.129262,1,1
2739,69,0.163297,0.060799,0.181516,0.158019,0.323251,1,1
2723,69,0.197305,0.117241,0.113083,0.163566,0.220779,1,1
2726,69,0.196179,0.119640,0.213849,0.142630,0.275398,1,0
2742,69,0.222532,-0.085511,0.198877,0.074214,0.215868,1,1
2751,69,0.248623,-0.071740,0.005347,0.052333,0.142118,1,1
2754,69,0.264241,0.011231,0.057410,0.115113,0.126859,1,1
2745,69,0.157946,-0.005618,0.069913,0.027161,0.030549,1,1
2728,69,0.257075,0.092331,0.123979,0.230732,0.129316,1,1
2781,70,0.219965,-0.041692,0.059849,0.103537,0.142536,1,1
2792,70,0.201240,-0.009550,0.085647,0.101991,0.141196,1,1
2788,70,0.183956,-0.110092,0.072263,0.058306,0.101340,0,1
2768,70,0.232790,0.063924,0.226294,0.179020,0.194725,1,1
2771,70,0.238368,0.186451,0.119083,0.089290,0.153148,1,0
2762,70,0.221231,0.069929,0.123337,0.160224,0.148032,1,1
2779,70,0.267282,-0.021744,0.183908,0.210572,0.113938,1,1
2777,70,0.205210,-0.025402,0.198461,0.207134,0.190841,1,1
2764,70,0.195493,0.114525,0.100686,0.248798,0.209467,1,1
2780,70,0.188079,-0.058569,0.098044,0.068768,0.189911,1,1
2794,70,0.114579,-0.002007,0.096536,0.078694,0.113977,1,1
2776,70,0.169884,0.096805,0.122799,0.072458,0.188364,1,1
2778,70,0.158879,0.068622,0.172814,0.117675,0.183702,1,1
2796,70,0.212387,0.013375,0.053387,0.127080,0.157106,1,1
2790,70,0.322522,-0.115776,0.088267,0.193920,0.116703,0,1
2775,70,0.245105,0.024345,0.121403,0.154057,0.208932,1,1
2770,70,0.176220,0.033566,0.143648,0.141057,0.161172,1,1
2791,70,0.338257,-0.084562,0.047713,0.160685,0.064474,0,1
2760,70,0.291084,0.153698,0.209974,0.290048,0.146254,1,0
2772,70,0.186002,0.045741,0.114822,0.130474,0.215678,1,1
2761,70,0.208970,0.085619,0.153396,0.142595,0.219674,1,1
2765,70,0.255738,0.028860,0.114640,0.137487,0.288483,1,1
2766,70,0.232283,-0.061263,0.123343,0.114352,0.168289,1,1
2773,70,0.276669,0.038917,0.111754,0.157606,0.262778,1,1
2795,70,0.234288,0.000262,0.171708,0.093561,0.090638,1,1
2797,70,0.211362,-0.066621,0.086563,0.104026,0.159372,1,1
2793,70,0.213427,-0.123874,0.158210,0.082550,0.113973,0,1
2799,70,0.270865,0.021778,0.037330,0.192855,0.126727,1,1
2763,70,0.115879,0.025033,0.172115,0.260702,0.242743,1,1
2774,70,0.261110,-0.001991,0.059090,0.151908,0.122750,1,1
2769,70,0.263708,0.068361,0.200628,0.130075,0.260056,1,1
2785,70,0.219174,0.028345,0.121420,0.064580,0.204355,1,1
2783,70,0.175614,-0.100040,0.056890,0.148338,0.061400,0,1
2789,70,0.235476,0.021597,0.100764,0.162393,0.111113,1,1
2786,70,0.214571,0.027205,0.170611,0.140937,0.143580,1,1
2782,70,0.306779,-0.059892,0.032155,0.085639,0.205563,1,1
2787,70,0.258614,0.004724,0.141680,0.141619,0.077898,1,1
2767,70,0.182220,-0.039898,0.146063,0.186312,0.172170,1,1
2784,70,0.224483,-0.063193,0.040565,0.142585,0.068769,1,1
2798,70,0.285800,0.003749,0.024559,0.160662,0.146592,1,1
2826,71,0.256297,0.082275,0.079691,0.057235,0.198353,1,1
2806,71,0.281066,0.075671,0.176417,0.218252,0.188513,1,1
2822,71,0.276275,-0.026544,0.185743,0.134332,0.142557,1,1
2802,71,0.198998,0.024178,0.129893,0.097983,0.242360,1,1
2835,71,0.278998,-0.034315,0.050223,0.129544,0.221823,1,1
2821,71,0.187926,-0.058548,0.091955,0.074657,0.183543,1,1
2830,71,0.229877,-0.071176,-0.054580,0.128162,0.092488,1,1
2801,71,0.238574,0.103225,0.125855,0.052777,0.140672,1,1
2829,71,0.221444,0.036649,0.093594,0.193707,0.180767,1,1
2827,71,0.254716,0.048615,0.098682,0.199144,0.076852,1,1
2834,71,0.204571,-0.014522,0.094445,0.126799,0.127069,1,1
2838,71,0.292911,-0.018072,0.134100,0.159130,0.175803,1,1
2805,71,0.256822,0.144343,0.160681,0.084081,0.179998,1,0
2809,71,0.210320,0.005139,0.161893,0.160086,0.221462,1,1
2810,71,0.200309,0.009120,0.142791,0.161908,0.155404,1,1
2812,71,0.199052,0.100908,0.191680,0.170002,0.187566,1,1
2804,71,0.150656,0.022226,0.175732,0.175271,0.151799,1,1
2818,71,0.247815,0.053267,0.131567,0.186197,0.252748,1,1
2803,71,0.181891,0.064471,0.131871,0.182209,0.190746,1,1
2828,71,0.238163,0.080102,0.026370,0.106881,0.179264,1,1
2832,71,0.318477,-0.066914,0.059197,0.105403,0.196223,0,1
2811,71,0.217815,0.107006,0.064011,0.157995,0.261095,1,1
2824,71,0.195497,-0.077858,0.212684,0.190197,0.237421,1,1
2820,71,0.180952,0.012205,0.117656,0.206203,0.180152,1,1
2807,71,0.218356,0.122210,0.050323,0.147671,0.175420,1,0
2825,71,0.275691,-0.026339,0.055162,0.123655,0.101019,1,1
2836,71,0.296829,-0.006391,0.139310,0.125255,0.111252,1,1
2837,71,0.237807,-0.018772,0.150169,0.224839,0.136997,1,1
2816,71,0.251769,0.058567,0.169478,0.064589,0.222914,1,1
2800,71,0.196700,0.106918,0.038099,0.153481,0.326884,1,1
2839,71,0.212666,-0.022134,0.049350,0.134908,0.188920,1,1
2823,71,0.178878,-0.095790,0.055984,0.180948,0.214200,0,1
2815,71,0.212568,0.070945,0.175078,0.100913,0.243271,1,1
2833,71,0.195188,0.034709,0.160582,0.115924,0.256423,1,1
2819,71,0.167163,-0.035345,0.136938,0.216456,0.192164,1,1
2817,71,0.250356,0.051848,0.115273,0.192886,0.219593,1,1
2831,71,0.216451,0.048866,0.127891,0.072085,0.123681,1,1
2813,71,0.239531,0.086740,0.067522,0.134111,0.246368,1,1
2808,71,0.241081,-0.015174,0.120074,0.284193,0.238831,1,1
2814,71,0.294947,0.072488,0.209025,0.136097,0.226938,1,1
2849,72,0.352087,0.132502,0.202037,0.161156,0.201791,1,0
2870,72,0.279052,-0.028827,0.159973,0.090837,0.151621,1,1
2877,72,0.261734,-0.008141,0.172955,0.141908,0.113373,1,1
2871,72,0.259776,-0.162675,0.161713,0.109890,0.130850,0,1
2879,72,0.275157,-0.077746,0.122200,0.080311,0.191704,1,1
2863,72,0.210543,-0.007972,0.096236,0.153388,0.234555,1,1
2851,72,0.224219,0.033174,0.135385,0.129970,0.279277,1,1
2846,72,0.230912,0.078931,0.125137,0.196581,0.266331,1,1
2866,72,0.270468,0.002848,0.108880,0.093887,0.294229,1,1
2859,72,0.272469,0.131001,0.160712,0.177110,0.165841,1,0
2844,72,0.211256,0.072155,0.157831,0.247273,0.289856,1,1
2862,72,0.259532,0.027453,0.059776,0.101589,0.223195,1,1
2852,72,0.126177,0.076742,0.062644,0.198398,0.196397,1,0
2878,72,0.221173,-0.012036,0.107601,0.092508,0.165989,1,1
2876,72,0.208752,-0.075094,0.160213,0.197663,0.186542,1,1
2867,72,0.248991,-0.058969,0.140208,0.201702,0.179915,1,1
2856,72,0.286435,0.042287,0.112396,0.218874,0.114935,1,1
2875,72,0.226168,-0.106119,0.178618,0.168203,0.207767,0,1
2847,72,0.214957,0.043135,0.167435,0.224103,0.240946,1,1
2841,72,0.234748,0.065511,0.187395,0.257303,0.229889,1,1
2850,72,0.179940,0.040167,0.111538,0.123691,0.223612,1,1
2842,72,0.188023,-0.001194,0.159989,0.174216,0.234131,1,1
2874,72,0.115764,-0.069812,0.165678,0.113912,0.239354,0,1
2855,72,0.196993,0.121693,0.213659,0.147816,0.175968,1,0
2868,72,0.202534,-0.095926,0.099921,0.039387,0.175414,0,1
2864,72,0.179060,-0.111704,0.152823,0.137088,0.131591,0,1
2861,72,0.221220,0.036320,0.097398,0.204785,0.156063,1,1
2843,72,0.112124,0.037498,0.165136,0.165035,0.161482,1,1
2848,72,0.209414,0.098992,0.135784,0.175784,0.204233,1,1
2853,72,0.323708,0.123637,0.140541,0.078319,0.276612,1,0
2857,72,0.226890,0.066291,0.095864,0.140326,0.180234,1,1
2854,72,0.325154,0.048392,0.168821,0.102581,0.200096,1,1
2869,72,0.242872,-0.006407,0.167481,0.079930,0.217485,1,1
2845,72,0.257353,0.007754,0.193997,0.143994,0.224982,1,1
2865,72,0.251023,-0.062145,0.118407,0.147768,0.156489,1,1
2840,72,0.182536,0.028535,0.245183,0.134557,0.180104,1,1
2858,72,0.295175,0.132569,0.166457,0.163098,0.141192,1,0
2860,72,0.164583,-0.023218,0.069224,0.099814,0.136319,1,1
2872,72,0.195755,-0.039324,0.233946,0.071063,0.156738,1,1
2873,72,0.237651,0.004404,0.138836,0.128139,0.168080,1,1
2892,73,0.227819,0.070980,0.195391,0.165646,0.141795,1,1
2886,73,0.297651,0.014162,0.205781,0.140658,0.316217,1,1
2917,73,0.281250,0.073852,0.136327,0.198600,0.163784,1,1
2898,73,0.220360,0.029932,0.130654,0.242112,0.253994,1,1
2891,73,0.181675,0.089008,0.267891,0.147354,0.219401,1,1
2909,73,0.277910,0.014218,0.092548,0.087849,0.159570,1,1
2888,73,0.267698,0.153118,0.100175,0.142144,0.249812,1,0
2915,73,0.334168,-0.057656,0.065744,0.198259,0.128894,1,1
2894,73,0.214317,0.119531,0.083160,0.088125,0.151340,1,0
2907,73,0.253150,-0.037124,0.086974,0.200903,0.161323,1,1
2900,73,0.262203,-0.010762,0.042080,0.171789,0.123907,1,1
2893,73,0.240308,0.152944,0.133920,0.087875,0.191087,1,0
2910,73,0.259903,-0.018158,0.097806,0.132775,0.276200,1,1
2883,73,0.256321,-0.024842,0.137004,0.196270,0.274050,1,1
2901,73,0.302425,-0.059419,0.055102,0.190037,0.155044,1,1
2884,73,0.275426,0.130030,0.114502,0.212331,0.201955,1,0
2908,73,0.262239,0.011346,0.187308,0.134937,0.243102,1,1
2881,73,0.237933,0.077615,0.145350,0.205605,0.265121,1,1
2904,73,0.244888,0.037717,0.119518,0.111505,0.161934,1,1
2889,73,0.237979,0.069498,0.194084,0.187590,0.211399,1,1
2897,73,0.208731,0.095560,0.071193,0.159149,0.187651,1,1
2919,73,0.170257,-0.045509,0.088974,0.101116,0.081027,1,1
2913,73,0.234734,0.029968,0.144267,0.083847,0.100157,1,1
2916,73,0.300651,-0.037120,0.095038,0.054817,0.135883,1,1
2880,73,0.160582,0.068634,0.116174,0.163840,0.243518,1,1
2905,73,0.196037,-0.027045,0.050202,0.190583,0.166746,1,1
2911,73,0.349362,-0.038854,0.078609,0.142801,0.136786,1,1
2890,73,0.184631,-0.040727,0.091122,0.180963,0.221355,1,1
2899,73,0.293744,0.148182,0.115631,0.250278,0.183172,1,0
2896,73,0.211907,0.094973,0.078973,0.226197,0.227225,1,1
2902,73,0.205924,0.025968,0.177568,0.084811,0.102227,1,1
2914,73,0.230862,-0.037634,0.065669,0.179652,0.119258,1,1
2903,73,0.288939,0.015912,0.041003,0.191243,0.178603,1,1
2887,73,0.243847,0.087611,0.095934,0.187849,0.212873,1,1
2885,73,0.274913,0.153949,0.209412,0.097450,0.244932,1,0
2895,73,0.276882,0.071758,0.175558,0.257776,0.126724,1,1
2882,73,0.266255,0.061091,0.157914,0.221601,0.208886,1,1
2906,73,0.290852,-0.144082,0.107054,0.201329,0.172777,0,1
2912,73,0.330040,-0.044171,0.102265,0.163050,0.158008,1,1
2918,73,0.169307,-0.034196,-0.025787,0.128129,0.195370,1,1
2927,74,0.314204,0.062161,0.242241,0.184445,0.238247,1,1
2924,74,0.341452,0.039534,0.092323,0.190182,0.152398,1,1
2955,74,0.279624,0.003824,0.124394,0.169337,0.269342,1,1
2944,74,0.245946,-0.012835,0.130450,0.160084,0.110020,1,1
2933,74,0.308089,0.088327,0.070182,0.182827,0.218366,1,1
2925,74,0.284758,0.140126,0.073080,0.209853,0.304709,1,0
2923,74,0.218499,0.035297,0.182229,0.254055,0.268974,1,1
2938,74,0.352819,0.103328,0.177072,0.149812,0.236163,1,0
2950,74,0.256641,-0.056667,0.113417,0.094772,0.152580,1,1
2920,74,0.302684,0.094639,0.114713,0.132947,0.151365,1,1
2928,74,0.310422,0.050616,0.078926,0.143522,0.151792,1,1
2949,74,0.270137,-0.008585,0.074218,0.163941,0.196996,1,1
2929,74,0.319736,0.130834,0.228850,0.253123,0.190930,1,0
2948,74,0.266661,-0.070898,0.102630,0.195147,0.204162,1,1
2940,74,0.259079,-0.034574,0.139270,0.098772,0.207571,1,1
2943,74,0.257838,-0.105070,0.085918,0.157299,0.100078,0,1
2947,74,0.287653,-0.046713,0.190189,0.170255,0.137956,1,1
2926,74,0.250611,0.053375,0.079047,0.184126,0.278310,1,1
2932,74,0.395053,0.113741,0.203445,0.248895,0.245805,1,0
2939,74,0.346683,0.066916,0.085982,0.182680,0.113313,1,1
2946,74,0.278677,0.056376,0.090449,0.149646,0.169329,1,1
2922,74,0.347016,0.109411,0.149077,0.199965,0.176494,1,0
2934,74,0.257283,0.103775,0.162004,0.162818,0.243769,1,1
2935,74,0.266443,0.058708,0.163953,0.084598,0.184123,1,1
2959,74,0.209627,-0.011488,0.206141,0.106051,0.202579,1,1
2958,74,0.258147,-0.063936,0.112610,0.121032,0.119558,1,1
2931,74,0.211282,0.058085,0.166099,0.231494,0.269396,1,1
2956,74,0.228930,-0.006868,0.117419,0.049850,0.199029,1,1
2954,74,0.283291,-0.064061,-0.003891,0.125646,0.221428,1,1
2921,74,0.244411,0.021581,0.177444,0.266058,0.273821,1,1
2937,74,0.364764,0.094187,0.100904,0.144838,0.179858,1,0
2945,74,0.192517,-0.074100,0.190930,0.175227,0.189646,0,1
2942,74,0.353833,-0.059271,0.218059,0.155635,0.157646,0,1
2957,74,0.211001,0.050236,0.082948,0.116992,0.198049,1,1
2941,74,0.204091,-0.116782,0.156920,0.036325,0.092311,0,1
2952,74,0.182555,-0.062128,0.070943,0.082827,0.095777,1,1
2951,74,0.282913,-0.005046,0.116976,0.048057,0.221841,1,1
2953,74,0.377180,-0.067746,0.010896,0.136825,0.182526,0,1
2930,74,0.223850,0.031807,0.152710,0.091066,0.305126,1,1
2936,74,0.228166,0.046286,0.203008,0.152402,0.162023,1,1
2974,75,0.256315,0.062331,0.220645,0.182470,0.174540,1,1
2995,75,0.182944,-0.035071,0.030482,0.120059,0.193981,1,1
2993,75,0.259990,-0.103583,0.153699,0.123806,0.160156,0,1
2968,75,0.292336,0.047038,0.077816,0.268686,0.174696,1,1
2972,75,0.155925,0.157992,0.185032,0.139330,0.282524,1,0
2996,75,0.268943,-0.036376,0.120915,0.189510,0.275035,1,1
2971,75,0.231419,-0.001181,0.153140,0.162273,0.243873,1,1
2990,75,0.130101,-0.004127,0.076675,0.115773,0.162833,0,1
2966,75,0.225675,0.039842,0.167167,0.209933,0.232076,1,1
2989,75,0.339879,-0.007263,0.105277,0.180311,0.135259,1,1
2976,75,0.257402,0.009117,0.174576,0.232565,0.272419,1,1
2962,75,0.382396,0.041964,0.167962,0.173313,0.213899,1,1
2970,75,0.290045,0.037273,0.143786,0.261081,0.185814,1,1
2967,75,0.292835,0.087017,0.136526,0.210590,0.118293,1,1
2961,75,0.299598,0.029347,0.096533,0.183937,0.272209,1,1
2965,75,0.237305,0.021530,0.186060,0.129706,0.256556,1,1
2991,75,0.249915,-0.089146,0.055015,0.146483,0.152589,0,1
2960,75,0.274659,0.077643,0.155823,0.110448,0.218385,1,1
2992,75,0.187764,0.036036,0.104908,0.181903,0.098975,1,1
2964,75,0.279479,0.099243,0.127960,0.183364,0.212766,1,1
2963,75,0.228308,0.118384,0.251440,0.222538,0.190037,1,0
2980,75,0.279138,-0.043147,0.001207,0.209699,0.159261,1,1
2984,75,0.363332,-0.065482,0.229384,0.224044,0.161844,0,1
2979,75,0.276306,0.037038,0.143819,0.149460,0.247716,1,1
2994,75,0.231844,-0.071066,0.162502,0.125284,0.071455,1,1
2975,75,0.264264,0.054119,0.141319,0.214769,0.208291,1,1
2988,75,0.199507,-0.164670,0.140816,0.170484,0.171555,0,1
2969,75,0.317481,0.017926,0.179903,0.181996,0.127086,1,1
2985,75,0.270884,0.152204,0.061474,0.163117,0.178596,1,1
2973,75,0.315317,0.031516,0.103541,0.177552,0.183702,1,1
2977,75,0.212169,0.070863,0.200739,0.291587,0.322497,1,1
2987,75,0.287190,-0.055912,0.069942,0.162751,0.138605,1,1
2983,75,0.251750,-0.000057,0.091686,0.183300,0.247926,1,1
2981,75,0.232339,-0.106516,0.053769,0.176236,0.187154,0,1
2997,75,0.287372,0.017928,0.118323,0.127223,0.123949,1,1
2999,75,0.205386,-0.068028,0.142619,0.131408,0.144574,1,1
2978,75,0.377142,0.060081,0.101930,0.161958,0.118359,1,1
2998,75,0.279250,-0.039551,0.112154,0.100311,0.177353,1,1
2982,75,0.209051,-0.018617,0.154249,0.093286,0.188907,1,1
2986,75,0.315527,-0.008365,0.044657,0.028902,0.079880,1,1
3008,76,0.242481,0.045030,0.197167,0.206150,0.298142,1,1
3023,76,0.276868,0.091826,0.109682,0.154206,0.146861,1,1
3001,76,0.288780,0.118032,0.239277,0.151709,0.261023,1,1
3017,76,0.282400,0.096948,-0.022710,0.194476,0.194021,1,1
3010,76,0.264747,0.086115,0.177730,0.146135,0.241879,1,1
3022,76,0.370032,0.014289,0.150527,0.112151,0.160346,1,1
3037,76,0.288287,-0.058666,0.109605,0.042059,0.232731,1,1
3007,76,0.257229,0.048520,0.124013,0.216324,0.266185,1,1
3034,76,0.250566,-0.062159,0.134944,0.082349,0.099040,1,1
3012,76,0.245065,0.078028,0.168220,0.156908,0.092032,1,1
3019,76,0.291477,0.046012,0.177295,0.237622,0.179917,1,1
3020,76,0.324181,0.002381,0.090478,0.304794,0.159070,1,1
3024,76,0.281041,-0.086389,0.207565,0.133268,0.225785,1,1
3005,76,0.312620,0.070534,0.201397,0.273502,0.184405,1,1
3033,76,0.257010,-0.086362,0.099094,0.211801,0.240701,1,1
3000,76,0.232215,0.118358,0.236557,0.148978,0.241957,1,0
3009,76,0.153656,-0.011759,0.210469,0.157405,0.290633,1,1
3031,76,0.323766,-0.047392,0.142773,0.186507,0.162630,1,1
3018,76,0.158969,0.028326,0.239289,0.185678,0.335213,1,1
3025,76,0.314035,0.005956,0.114091,0.095968,0.114270,1,1
3038,76,0.256936,-0.033346,0.098418,0.086739,0.197338,1,1
3011,76,0.246222,0.038290,0.201922,0.192084,0.213607,1,1
3035,76,0.296600,-0.052297,0.198799,0.251852,0.174046,1,1
3028,76,0.253493,-0.070439,0.122513,0.140082,0.126461,1,1
3027,76,0.266187,-0.095402,0.109382,0.213848,0.122750,0,1
3003,76,0.268575,-0.023657,0.243505,0.184574,0.285655,1,1
3013,76,0.299720,0.005674,0.229130,0.116982,0.174338,1,1
3030,76,0.239607,-0.039437,0.038254,0.128316,0.166018,1,1
3014,76,0.249318,0.030602,0.163075,0.243152,0.164880,1,1
3036,76,0.219175,-0.039144,0.125949,0.220120,0.179825,1,1
3021,76,0.244011,0.015384,0.088661,0.078480,0.135045,1,1
3039,76,0.270619,-0.029773,0.103811,0.269607,0.102743,1,1
3032,76,0.347120,-0.038854,0.071864,0.214575,0.303419,1,1
3006,76,0.201054,0.009757,0.112522,0.140346,0.172967,1,1
3004,76,0.242830,0.007161,0.184644,0.152915,0.242644,1,1
3015,76,0.236829,0.023101,0.166940,0.148297,0.276190,1,1
3026,76,0.226538,-0.024330,0.153770,0.177493,0.155565,1,1
3029,76,0.236085,0.005063,0.094011,0.159310,0.175271,1,1
3002,76,0.302795,0.080371,0.117943,0.211045,0.241231,1,1
3016,76,0.337964,0.060318,0.200143,0.080551,0.192190,1,1
3068,77,0.277955,-0.146915,0.130200,0.242172,0.139518,0,1
3069,77,0.286333,-0.110492,0.140951,0.082890,0.113624,0,1
3064,77,0.267036,0.020194,0.182963,0.167130,0.126437,1,1
3041,77,0.236505,0.184801,0.242116,0.220354,0.143199,1,0
3061,77,0.230549,0.033901,0.213736,0.161945,0.267081,1,1
3046,77,0.229094,0.068834,0.259755,0.182831,0.257533,1,1
3076,77,0.299848,-0.091361,0.054301,0.185948,0.182624,0,1
3057,77,0.221353,0.016852,0.200406,0.304117,0.128640,1,1
3044,77,0.244493,0.082196,0.152764,0.264439,0.207314,1,1
3053,77,0.340723,0.044635,0.219118,0.271940,0.233623,1,1
3071,77,0.333909,0.048390,0.134656,0.274611,0.139008,1,1
3077,77,0.211861,-0.006650,0.128493,0.138727,0.148803,1,1
3052,77,0.270575,0.120837,0.119479,0.159917,0.275256,1,0
3072,77,0.318184,-0.102846,0.117394,0.162217,0.347673,0,1
3043,77,0.147622,0.003518,0.191964,0.219327,0.292197,1,1
3058,77,0.219789,0.044453,0.132431,0.290117,0.210217,1,1
3079,77,0.340835,-0.058333,0.096085,0.163651,0.117710,1,1
3050,77,0.199811,0.015695,0.190089,0.234058,0.162986,1,1
3078,77,0.312135,-0.059389,0.140482,0.191099,0.180211,1,1
3073,77,0.253114,-0.064677,0.165143,0.166292,0.165697,1,1
3062,77,0.259906,-0.055320,0.190035,0.140167,0.166710,1,1
3065,77,0.304531,-0.124770,0.139399,0.153005,0.206840,0,1
3040,77,0.345783,0.054095,0.212932,0.214357,0.143778,1,1
3047,77,0.230107,0.055796,0.145519,0.215404,0.239419,1,1
3074,77,0.301972,0.151298,0.096987,0.160224,0.179670,1,1
3059,77,0.321621,0.032593,0.231010,0.172911,0.194243,1,1
3070,77,0.228414,-0.089695,0.084554,0.162477,0.222082,0,1
3048,77,0.290587,0.037184,0.181215,0.274833,0.179639,1,1
3051,77,0.243233,0.069082,0.200397,0.167906,0.271943,1,1
3042,77,0.239333,0.118841,0.194689,0.128570,0.283319,1,0
3049,77,0.262040,0.122752,0.092407,0.082454,0.198529,1,0
3063,77,0.256042,-0.116212,0.136101,0.212532,0.116024,0,1
3056,77,0.304846,0.042839,0.192243,0.230192,0.286377,1,1
3055,77,0.192478,0.059457,0.192780,0.201283,0.143114,1,1
3060,77,0.313813,-0.025092,0.155243,0.176158,0.158373,1,1
3066,77,0.245994,0.020331,0.090850,0.124586,0.144533,1,1
3054,77,0.286231,0.131985,0.168614,0.243831,0.282701,1,0
3045,77,0.352131,0.125002,0.181840,0.251108,0.288871,1,0
3067,77,0.331322,-0.053907,0.093924,0.111470,0.145408,1,1
3075,77,0.331430,0.013259,0.114263,0.165464,0.116012,1,1
3084,78,0.244990,0.136033,0.107161,0.193984,0.278281,1,0
3110,78,0.359271,0.060365,0.099163,0.185976,0.125787,1,1
3107,78,0.258960,-0.040615,0.144563,0.205100,0.151269,1,1
3095,78,0.297860,0.087318,0.133639,0.247688,0.168089,1,1
3089,78,0.253228,0.041566,0.169293,0.143137,0.233009,1,1
3114,78,0.312404,-0.001281,0.145635,0.204889,0.235213,1,1
3101,78,0.226483,-0.028383,0.162667,0.119579,0.248400,1,1
3091,78,0.374649,-0.010454,0.149572,0.196407,0.207317,1,1
3105,78,0.339052,0.071292,0.101731,0.163682,0.133275,1,1
3093,78,0.284964,-0.037173,0.167523,0.129027,0.215491,1,1
3119,78,0.271821,-0.054784,0.094160,0.225669,0.181783,1,1
3088,78,0.265447,0.101213,0.141741,0.178617,0.239702,1,1
3099,78,0.205768,0.131644,0.218065,0.159559,0.198412,1,0
3086,78,0.177015,0.159889,0.213107,0.246017,0.224762,1,0
3080,78,0.342030,0.098590,0.112244,0.170304,0.199251,1,1
3094,78,0.329394,0.076911,0.198371,0.210122,0.168060,1,1
3102,78,0.327234,0.065310,0.178101,0.187135,0.199791,1,1
3096,78,0.243224,0.018740,0.203746,0.218970,0.305849,1,1
3100,78,0.251704,-0.058616,0.105772,0.190564,0.174453,1,1
3113,78,0.319658,-0.089011,0.020367,0.163137,0.325761,0,1
3098,78,0.223029,0.054504,0.234938,0.176177,0.119904,1,1
3116,78,0.182964,-0.075462,0.047192,0.225532,0.141411,0,1
3111,78,0.267380,-0.023147,0.131932,0.122924,0.144237,1,1
3092,78,0.360525,0.013556,0.081797,0.244963,0.220841,1,1
3085,78,0.266652,0.131926,0.222057,0.110628,0.208050,1,0
3106,78,0.294403,-0.050593,0.115479,0.187351,0.216473,1,1
3115,78,0.330380,-0.066490,0.087516,0.139586,0.250852,1,1
3087,78,0.369145,0.114802,0.165547,0.229531,0.244421,1,0
3083,78,0.259313,-0.036258,0.191476,0.174770,0.261513,1,1
3117,78,0.337182,-0.098219,0.144039,0.170215,0.195340,0,1
3081,78,0.206395,0.070624,0.132363,0.189436,0.223890,1,1
3108,78,0.336784,-0.008390,0.105603,0.189597,0.152491,1,1
3103,78,0.281586,-0.020113,0.101722,0.107677,0.183566,1,1
3082,78,0.343772,0.069751,0.219474,0.117748,0.207381,1,1
3109,78,0.212040,-0.049923,0.123052,0.169773,0.183341,1,1
3090,78,0.258191,0.005976,0.176481,0.196248,0.224334,1,1
3104,78,0.327991,-0.008926,0.132297,0.168992,0.200045,1,1
3118,78,0.328928,-0.048381,0.152313,0.150136,0.129248,1,1
3112,78,0.389513,-0.041245,0.119049,0.106511,0.190659,1,1
3097,78,0.326799,0.064555,0.207530,0.184426,0.214633,1,1
3152,79,0.260299,0.006349,0.162552,0.243542,0.218565,1,1
3126,79,0.245259,0.050245,0.185226,0.269436,0.230394,1,1
3150,79,0.315161,-0.052711,0.162375,0.248243,0.184836,1,1
3137,79,0.364502,0.078697,0.159350,0.270238,0.266888,1,1
3155,79,0.244897,-0.035192,0.064654,0.202056,0.188718,1,1
3134,79,0.271980,0.110311,0.204623,0.148641,0.186082,1,1
3144,79,0.347811,-0.047103,0.121654,0.055025,0.108789,1,1
3123,79,0.345974,0.119616,0.132456,0.234054,0.190947,1,0
3141,79,0.354856,0.020652,0.188760,0.173039,0.298722,1,1
3145,79,0.291364,0.037415,0.163288,0.229647,0.248514,1,1
3151,79,0.286616,-0.048571,0.170848,0.152742,0.142391,1,1
3159,79,0.307859,0.049959,0.133385,0.110594,0.299091,1,1
3140,79,0.251871,0.012166,0.192149,0.070083,0.208257,1,1
3128,79,0.329716,0.084236,0.176571,0.219238,0.178961,1,1
3146,79,0.265120,-0.030267,0.119484,0.092823,0.193137,1,1
3153,79,0.380899,-0.009665,0.108262,0.137106,0.114529,1,1
3132,79,0.367835,0.094046,0.127541,0.270390,0.238532,1,1
3133,79,0.270813,0.070864,0.218248,0.147522,0.247869,1,1
3125,79,0.306513,0.132330,0.212372,0.176259,0.206613,1,0
3122,79,0.235300,0.206149,0.189295,0.200474,0.215932,1,0
3130,79,0.302509,-0.015123,0.191768,0.140805,0.154450,1,1
3120,79,0.225306,0.029282,0.179091,0.196450,0.224371,1,1
3154,79,0.334031,-0.002834,0.116504,0.188384,0.143619,1,1
3135,79,0.276322,0.034179,0.200326,0.224496,0.299919,1,1
3142,79,0.334298,-0.034788,0.065505,0.144371,0.187072,1,1
3127,79,0.284507,0.118890,0.220854,0.201041,0.142381,1,1
3157,79,0.266237,-0.061937,0.177127,0.215609,0.183433,1,1
3143,79,0.283180,-0.102298,0.164761,0.148055,0.113249,0,1
3156,79,0.256757,-0.024396,0.206102,0.190489,0.080069,1,1
3131,79,0.352394,0.087603,0.175246,0.244856,0.325544,1,1
3149,79,0.296607,-0.039117,0.179647,0.198845,0.220736,1,1
3129,79,0.339605,-0.010214,0.200544,0.191099,0.208898,1,1
3124,79,0.298369,0.122106,0.234973,0.190878,0.221348,1,0
3121,79,0.279165,0.079016,0.218377,0.275811,0.257391,1,1
3139,79,0.335942,0.102439,0.217940,0.155707,0.266963,1,1
3138,79,0.300575,0.044569,0.178256,0.252054,0.231453,1,1
3158,79,0.265150,-0.062158,0.064464,0.141134,0.148192,1,1
3147,79,0.272671,0.022266,0.168882,0.161579,0.238107,1,1
3148,79,0.288428,0.019608,0.072373,0.255331,0.119134,1,1
3136,79,0.300824,0.000731,0.217882,0.273935,0.263783,1,1
3181,80,0.313819,-0.005036,0.182352,0.133998,0.207473,1,1
3171,80,0.261695,-0.039609,0.136651,0.263955,0.303477,1,1
3177,80,0.279952,0.041959,0.159138,0.130520,0.262888,1,1
3179,80,0.300259,-0.033165,0.204184,0.202037,0.190647,1,1
3164,80,0.245495,0.012738,0.275009,0.189904,0.389340,1,1
3193,80,0.289708,-0.040102,0.206581,0.204080,0.174757,1,1
3160,80,0.244188,0.065664,0.135247,0.208103,0.272838,1,1
3169,80,0.332594,0.000442,0.240461,0.212568,0.264870,1,1
3172,80,0.380630,0.054109,0.184049,0.189424,0.263754,1,1
3198,80,0.332543,-0.026338,0.123084,0.113570,0.268568,1,1
3195,80,0.310794,-0.022759,0.082483,0.249286,0.166570,1,1
3196,80,0.352327,-0.002353,0.251180,0.162303,0.138374,1,1
3176,80,0.277460,0.054032,0.214028,0.144829,0.266689,1,1
3173,80,0.326119,0.043704,0.223488,0.200388,0.268936,1,1
3186,80,0.331072,0.060674,0.104516,0.130445,0.152457,1,1
3165,80,0.276406,0.067416,0.209760,0.099976,0.169917,1,1
3190,80,0.272977,-0.080784,0.146480,0.176470,0.202292,1,1
3185,80,0.307700,-0.064504,0.237083,0.173165,0.059167,1,1
3188,80,0.336643,-0.027681,0.082942,0.054491,0.177561,1,1
3180,80,0.342906,-0.030712,0.198114,0.169089,0.244093,1,1
3166,80,0.333799,0.049418,0.113756,0.191541,0.292972,1,1
3167,80,0.290764,-0.025161,0.283751,0.212502,0.306008,1,1
3184,80,0.337657,-0.001831,0.081582,0.194017,0.202462,1,1
3192,80,0.239812,-0.007334,0.234002,0.127747,0.204662,1,1
3182,80,0.305069,-0.030599,0.016161,0.193811,0.144187,1,1
3161,80,0.317544,0.105439,0.115878,0.172488,0.262616,1,1
3187,80,0.399654,-0.036855,0.144182,0.161963,0.188978,1,1
3163,80,0.299468,0.105218,0.236372,0.176905,0.229870,1,1
3162,80,0.386348,0.101370,0.170298,0.200884,0.245313,1,0
3199,80,0.325804,-0.072939,0.171182,0.196527,0.204914,1,1
3178,80,0.302186,0.065137,0.197357,0.238470,0.231070,1,1
3194,80,0.260518,-0.066535,0.109578,0.155454,0.204947,1,1
3191,80,0.259258,0.030558,0.064134,0.138640,0.115166,1,1
3170,80,0.269844,0.108719,0.157302,0.233588,0.184966,1,1
3197,80,0.323079,-0.000379,0.051750,0.171047,0.301231,1,1
3174,80,0.313746,0.012359,0.115524,0.252871,0.239695,1,1
3175,80,0.355295,0.048219,0.104599,0.234298,0.220512,1,1
3183,80,0.327073,-0.055581,0.242858,0.249031,0.192629,1,1
3189,80,0.302478,-0.036560,0.134717,0.226942,0.251895,1,1
3168,80,0.209759,0.076147,0.120304,0.178277,0.239024,1,1
3222,81,0.331756,-0.016244,0.039880,0.103043,0.242579,1,1
3237,81,0.289803,-0.035771,0.133918,0.154925,0.259127,1,1
3211,81,0.260273,0.082401,0.257358,0.245476,0.278535,1,1
3207,81,0.282724,0.038012,0.169293,0.201090,0.302017,1,1
3206,81,0.293884,0.108175,0.188438,0.228842,0.214028,1,1
3205,81,0.266376,0.011828,0.121250,0.218661,0.247447,1,1
3228,81,0.315689,-0.086513,0.147328,0.196189,0.171036,1,1
3214,81,0.311210,0.059503,0.184491,0.286072,0.221120,1,1
3219,81,0.285043,-0.011194,0.134836,0.125796,0.318348,1,1
3212,81,0.257268,0.089574,0.124205,0.174913,0.237522,1,1
3213,81,0.387018,0.106626,0.191126,0.139294,0.223221,1,0
3223,81,0.291435,0.101166,0.084198,0.248415,0.171011,1,1
3234,81,0.337521,-0.041900,0.056367,0.251414,0.076539,1,1
3204,81,0.266562,0.065056,0.146994,0.122313,0.238835,1,1
3233,81,0.362804,-0.008457,0.117387,0.144423,0.196380,1,1
3217,81,0.295803,0.128904,0.197303,0.218148,0.116240,1,0
3220,81,0.279602,0.011772,0.213196,0.093020,0.159459,1,1
3215,81,0.292864,0.063024,0.077104,0.173713,0.237823,1,1
3202,81,0.255945,0.037944,0.125572,0.176086,0.208191,1,1
3218,81,0.311997,0.046367,0.177513,0.173742,0.193440,1,1
3203,81,0.299109,0.122890,0.163174,0.231391,0.323368,1,0
3224,81,0.281151,-0.106936,0.157004,0.225431,0.104640,0,1
3236,81,0.294894,-0.054685,0.174614,0.146636,0.125285,1,1
3210,81,0.275886,-0.003467,0.190413,0.189994,0.254604,1,1
3230,81,0.300879,0.003789,0.080209,0.219236,0.230848,1,1
3226,81,0.285623,0.025741,0.134918,0.169594,0.168583,1,1
3216,81,0.281523,0.162960,0.105824,0.292867,0.223456,1,0
3200,81,0.345233,0.167818,0.158733,0.203186,0.209164,1,0
3239,81,0.249441,0.007004,0.181185,0.028202,0.077372,1,1
3209,81,0.294799,0.087174,0.255656,0.224909,0.266470,1,1
3201,81,0.446265,0.026069,0.223202,0.259487,0.156887,1,0
3231,81,0.313368,0.046581,0.174480,0.174745,0.149342,1,1
3238,81,0.251926,-0.048039,0.083066,0.242663,0.213257,1,1
3208,81,0.246781,0.164293,0.175911,0.300284,0.250000,1,0
3232,81,0.393984,0.067626,0.215130,0.258982,0.157456,1,1
3227,81,0.303470,-0.127487,0.081134,0.080846,0.222561,0,1
3221,81,0.328416,-0.057696,0.144985,0.092384,0.249173,1,1
3229,81,0.285516,0.028277,0.170420,0.200582,0.092844,1,1
3225,81,0.344358,-0.023536,0.140627,0.162966,0.150987,1,1
3235,81,0.268108,0.026597,0.151763,0.124851,0.171148,1,1
3251,82,0.326096,0.107627,0.147809,0.236052,0.179573,1,1
3248,82,0.319274,0.098982,0.197326,0.243940,0.215884,1,1
3276,82,0.256125,-0.039711,0.210817,0.240510,0.224776,1,1
3266,82,0.306857,-0.033880,0.185534,0.165171,0.192186,1,1
3265,82,0.328038,-0.051522,0.071991,0.152524,0.168340,1,1
3279,82,0.274048,0.005964,0.116169,0.078557,0.174680,1,1
3242,82,0.357924,0.114061,0.170180,0.186555,0.190224,1,0
3268,82,0.305720,-0.042663,0.146252,0.176915,0.152823,1,1
3240,82,0.279340,0.116342,0.130463,0.164298,0.295437,1,1
3243,82,0.351441,0.080543,0.174283,0.092041,0.233953,1,1
3257,82,0.233082,0.100370,0.163040,0.234243,0.256543,1,0
3269,82,0.264402,-0.049088,0.068163,0.117632,0.252385,1,1
3260,82,0.287939,-0.047368,0.152340,0.147332,0.205164,1,1
3275,82,0.267410,0.084994,0.052962,0.180143,0.167406,1,1
3258,82,0.351568,0.078669,0.130975,0.240006,0.290174,1,1
3263,82,0.457153,0.070222,0.032041,0.148912,0.232380,1,1
3259,82,0.318615,0.018211,0.132620,0.204912,0.239705,1,1
3254,82,0.248056,0.078690,0.074367,0.274205,0.205917,1,1
3249,82,0.385253,0.009695,0.232207,0.131225,0.281712,1,1
3272,82,0.339918,-0.062202,0.174201,0.165029,0.295422,1,1
3245,82,0.353954,0.046016,0.228142,0.210601,0.266305,1,1
3246,82,0.354396,0.024459,0.238344,0.200360,0.225835,1,1
3277,82,0.254433,-0.039029,0.128102,0.026437,0.267019,1,1
3250,82,0.190928,0.032040,0.087253,0.220261,0.165004,1,1
3271,82,0.274648,0.054376,0.145988,0.179865,0.169507,1,1
3252,82,0.300261,0.094295,0.186895,0.141223,0.292778,1,1
3253,82,0.339344,0.123587,0.094075,0.339721,0.252834,1,0
3264,82,0.323806,-0.046658,0.036540,0.144769,0.243532,1,1
3274,82,0.269802,-0.014983,0.154891,0.158126,0.215506,1,1
3247,82,0.316000,0.041589,0.118239,0.159658,0.231798,1,1
3278,82,0.319534,-0.049732,0.111541,0.118906,0.281857,1,1
3273,82,0.316160,-0.083015,0.074785,0.234007,0.231527,1,1
3244,82,0.316959,0.020083,0.231722,0.133855,0.253637,1,1
3256,82,0.267627,0.021291,0.191083,0.159235,0.192735,1,1
3261,82,0.351402,-0.118831,0.192178,0.179117,0.249675,0,1
3270,82,0.335375,-0.088715,0.195965,0.116863,0.147858,0,1
3255,82,0.256311,0.005895,0.260585,0.260261,0.204146,1,1
3267,82,0.358311,-0.081556,0.132698,0.255806,0.183747,0,1
3262,82,0.300657,0.063055,0.170072,0.222475,0.253426,1,1
3241,82,0.368899,0.039801,0.211099,0.140457,0.252223,1,1
3281,83,0.397903,0.052367,0.234640,0.133427,0.207529,1,1
3318,83,0.324975,-0.070652,0.124851,0.091852,0.164178,1,1
3317,83,0.291701,-0.023097,0.196626,0.155757,0.223634,1,1
3283,83,0.346014,0.009786,0.284693,0.201032,0.310702,1,1
3309,83,0.257652,-0.054468,0.156183,0.148267,0.227117,1,1
3291,83,0.246723,0.053592,0.153179,0.145108,0.306957,1,1
3299,83,0.266463,0.097807,0.234528,0.196696,0.284152,1,1
3303,83,0.287131,0.005466,0.144480,0.241086,0.188322,1,1
3285,83,0.275677,0.033393,0.172789,0.219895,0.331984,1,1
3292,83,0.213974,0.081170,0.131620,0.230879,0.290643,1,0
3300,83,0.310940,0.004178,0.155046,0.094908,0.185026,1,1
3308,83,0.300348,-0.077652,0.078619,0.145676,0.285720,1,1
3310,83,0.299556,-0.086089,0.171055,0.188932,0.135001,1,1
3295,83,0.363266,0.062387,0.295578,0.175670,0.334666,1,1
3298,83,0.402397,0.109995,0.198580,0.223651,0.220670,1,0
3313,83,0.338495,-0.008847,0.154540,0.146924,0.116776,1,1
3297,83,0.313093,0.129819,0.162074,0.233697,0.172511,1,0
3287,83,0.375098,0.083770,0.125574,0.211642,0.180345,1,1
3319,83,0.300369,-0.092767,0.204233,0.178736,0.247541,0,1
3284,83,0.392777,0.055010,0.227390,0.195981,0.246784,1,1
3307,83,0.355695,0.009566,0.196859,0.232743,0.212415,1,1
3311,83,0.314351,-0.097176,0.112961,0.177872,0.194625,0,1
3312,83,0.342376,0.036657,0.187305,0.126672,0.290221,1,1
3294,83,0.303200,0.017325,0.216692,0.219170,0.318800,1,1
3280,83,0.328789,0.040482,0.126047,0.192174,0.237358,1,1
3290,83,0.318803,0.067217,0.284285,0.089361,0.128069,1,1
3282,83,0.314795,0.018793,0.197415,0.176361,0.276590,1,1
3296,83,0.290401,0.079282,0.122532,0.303490,0.194734,1,1
3288,83,0.371192,0.045194,0.245683,0.229060,0.271414,1,1
3301,83,0.324594,-0.083560,0.062657,0.218928,0.211997,1,1
3306,83,0.192619,-0.002762,0.065833,0.160931,0.236658,1,1
3286,83,0.351243,0.106594,0.155004,0.101692,0.285374,1,1
3293,83,0.328822,0.017268,0.201343,0.245285,0.200845,1,1
3304,83,0.283853,-0.119223,0.146120,0.150778,0.232536,0,1
3289,83,0.327704,0.088695,0.249290,0.207245,0.241911,1,1
3315,83,0.248187,-0.087296,0.220819,0.164293,0.219978,0,1
3316,83,0.394640,-0.004689,0.102592,0.166519,0.239652,1,1
3314,83,0.365938,0.068006,0.236849,0.118419,0.121876,1,1
3305,83,0.295855,-0.034956,0.151685,0.184687,0.222905,1,1
3302,83,0.294132,-0.038544,0.127577,0.135280,0.209229,1,1
3343,84,0.312904,-0.003513,0.178565,0.107645,0.233366,1,1
3328,84,0.300053,0.080646,0.245779,0.212349,0.218141,1,1
3357,84,0.404104,0.009306,0.221361,0.265918,0.200805,1,1
3333,84,0.244389,-0.023045,0.252446,0.133510,0.224057,1,1
3345,84,0.283673,0.066576,0.153754,0.207566,0.216736,1,1
3321,84,0.191152,0.127547,0.240994,0.204908,0.197267,1,0
3330,84,0.387707,0.080749,0.178231,0.312134,0.226923,1,1
3322,84,0.264724,0.104300,0.151387,0.097815,0.326080,1,1
3342,84,0.352433,-0.089003,0.212039,0.139217,0.212825,0,1
3325,84,0.284986,0.004786,0.269709,0.241778,0.227720,1,1
3334,84,0.237233,0.012285,0.220584,0.228032,0.250035,1,1
3332,84,0.328651,-0.003138,0.188417,0.273555,0.265593,1,1
3323,84,0.262858,0.041140,0.247809,0.162310,0.201011,1,1
3350,84,0.311591,-0.012574,0.194069,0.132736,0.205984,1,1
3324,84,0.280047,0.030150,0.221775,0.232338,0.157501,1,1
3348,84,0.371547,0.017638,0.226427,0.104265,0.174048,1,1
3335,84,0.295159,0.098058,0.221775,0.144739,0.215405,1,1
3338,84,0.306810,-0.008804,0.185707,0.164666,0.218414,1,1
3346,84,0.257779,-0.126342,0.147866,0.134092,0.211914,0,1
3337,84,0.347223,0.053687,0.207100,0.245168,0.193505,1,1
3355,84,0.371860,-0.050476,0.114268,0.109088,0.159777,1,1
3351,84,0.307052,-0.127500,0.114461,0.180980,0.208308,0,1
3339,84,0.261850,0.063178,0.183830,0.203091,0.255612,1,1
3359,84,0.375164,0.046942,0.099808,0.158547,0.209168,1,1
3352,84,0.320467,0.009198,0.162704,0.143791,0.222433,1,1
3320,84,0.313247,0.034769,0.152930,0.206112,0.175329,1,1
3329,84,0.425390,0.062391,0.133069,0.233519,0.185020,1,1
3344,84,0.331828,-0.012571,0.044495,0.220909,0.279128,1,1
3341,84,0.289438,-0.004070,0.068346,0.081163,0.240866,1,1
3358,84,0.247101,-0.019336,0.220971,0.187909,0.306233,1,1
3354,84,0.349114,-0.001312,0.082372,0.140077,0.154539,1,1
3336,84,0.293542,0.064336,0.173871,0.149526,0.178878,1,1
3331,84,0.275878,0.070794,0.225956,0.231315,0.178353,1,1
3326,84,0.310462,0.130529,0.114666,0.199740,0.360962,1,0
3347,84,0.370150,-0.098921,0.219309,0.171849,0.155873,0,1
3356,84,0.331329,-0.013659,0.155361,0.184131,0.219192,1,1
3353,84,0.299741,0.033501,0.091575,0.250147,0.211805,1,1
3349,84,0.385052,0.022773,0.143637,0.157390,0.133424,1,1
3327,84,0.392688,0.083340,0.249292,0.228801,0.314032,1,1
3340,84,0.371749,-0.046951,0.184161,0.181769,0.168249,1,1
3392,85,0.370570,-0.034072,0.133749,0.120821,0.167443,1,1
3385,85,0.330349,-0.026585,0.109684,0.165457,0.197184,1,1
3399,85,0.374690,-0.050913,0.060896,0.254252,0.183968,1,1
3375,85,0.276778,0.033452,0.192036,0.302482,0.232857,1,1
3376,85,0.410088,0.022765,0.142140,0.180111,0.192316,1,1
3369,85,0.354615,-0.000170,0.155219,0.171380,0.225224,1,1
3378,85,0.201516,0.029535,0.172242,0.173000,0.214406,1,1
3387,85,0.271657,0.023157,0.155903,0.076389,0.284651,1,1
3382,85,0.385851,0.011971,0.132408,0.218599,0.176435,1,1
3383,85,0.389167,0.018085,0.112170,0.174959,0.230337,1,1
3365,85,0.236121,0.079975,0.183157,0.227919,0.252303,1,1
3395,85,0.288568,-0.131338,0.170827,0.193095,0.217199,0,1
3384,85,0.266325,-0.018663,0.084139,0.143178,0.207943,1,1
3393,85,0.433012,0.077893,0.081756,0.247877,0.204987,1,1
3394,85,0.329984,-0.034291,0.117966,0.139585,0.255806,1,1
3361,85,0.284616,0.025324,0.207219,0.203478,0.322706,1,1
3364,85,0.323741,0.052408,0.162578,0.295499,0.273542,1,1
3367,85,0.365296,0.163510,0.288658,0.231680,0.242593,1,0
3389,85,0.277415,-0.024894,0.142707,0.127251,0.266033,1,1
3372,85,0.330161,0.075418,0.155006,0.136204,0.108347,1,1
3374,85,0.370213,0.104907,0.133980,0.245177,0.248990,1,1
3380,85,0.358267,-0.010523,0.218024,0.167412,0.225441,1,1
3386,85,0.332682,-0.091130,0.202419,0.173438,0.159395,0,1
3360,85,0.310151,0.046100,0.236321,0.258097,0.287749,1,1
3391,85,0.247548,-0.096275,0.133086,0.128580,0.276669,0,1
3396,85,0.363081,0.005607,0.126745,0.225509,0.249114,1,1
3381,85,0.268724,-0.063473,0.067238,0.187887,0.247558,1,1
3373,85,0.311787,-0.010289,0.077360,0.234996,0.280234,1,1
3379,85,0.258991,0.040929,0.204191,0.188709,0.209695,1,1
3377,85,0.355710,0.082345,0.214705,0.310452,0.301300,1,1
3370,85,0.342321,0.009261,0.219223,0.177331,0.170278,1,1
3362,85,0.287698,0.035931,0.184607,0.276954,0.178651,1,1
3398,85,0.384101,-0.040699,0.223494,0.205794,0.002576,1,1
3368,85,0.399546,0.046160,0.135582,0.117575,0.309240,1,1
3363,85,0.363909,0.070575,0.216512,0.219250,0.205643,1,1
3390,85,0.431558,-0.007426,0.101860,0.205693,0.266626,1,1
3366,85,0.290836,0.074413,0.228458,0.274689,0.278471,1,1
3388,85,0.259775,-0.052413,0.181940,0.178600,0.200111,1,1
3397,85,0.400574,0.001538,0.120264,0.108067,0.112073,1,1
3371,85,0.290946,0.086476,0.182905,0.172910,0.269703,1,1
3410,86,0.308233,0.157571,0.218483,0.223214,0.247315,1,0
3436,86,0.374471,-0.004444,0.197860,0.169319,0.247731,1,1
3406,86,0.318147,0.066359,0.128650,0.174701,0.222543,1,1
3417,86,0.354624,-0.011278,0.098458,0.259906,0.214135,1,1
3431,86,0.257828,-0.020043,0.162712,0.158289,0.231262,1,1
3408,86,0.369318,-0.006217,0.232960,0.179822,0.247335,1,1
3425,86,0.293322,-0.026140,0.068568,0.120791,0.254329,1,1
3422,86,0.237338,-0.076358,0.102007,0.205092,0.228504,0,1
3423,86,0.292265,-0.095974,0.148835,0.204324,0.232355,0,1
3437,86,0.274508,-0.111360,0.146472,0.178936,0.235020,0,1
3413,86,0.317452,0.037200,0.262771,0.121003,0.194051,1,1
3418,86,0.338171,0.076891,0.336706,0.261672,0.191871,1,1
3430,86,0.368156,-0.002586,0.167864,0.144977,0.177805,1,1
3421,86,0.372797,-0.108423,0.154872,0.109027,0.216828,0,1
3432,86,0.312958,0.006539,0.055542,0.097706,0.106225,1,1
3420,86,0.403740,-0.102069,0.162746,0.130868,0.134380,0,1
3428,86,0.244258,-0.043797,0.136462,0.239019,0.190629,1,1
3419,86,0.302657,0.049360,0.223217,0.228290,0.265738,1,1
3403,86,0.279883,0.023973,0.245197,0.216340,0.222103,1,1
3427,86,0.387797,-0.052862,0.212710,0.179538,0.218301,1,1
3434,86,0.350369,-0.006918,0.165610,0.137084,0.261975,1,1
3400,86,0.277161,0.062674,0.280415,0.248319,0.242458,1,1
3439,86,0.360609,-0.034077,0.099437,0.235679,0.207128,1,1
3405,86,0.301603,-0.005882,0.215750,0.256901,0.270348,1,1
3433,86,0.292705,0.000987,0.158843,0.144297,0.184849,1,1
3424,86,0.343505,-0.144863,0.142329,0.195157,0.279907,0,1
3416,86,0.335872,0.088464,0.184261,0.259396,0.269808,1,1
3414,86,0.373868,0.062034,0.204626,0.295493,0.284466,1,1
3426,86,0.332686,0.053034,0.095276,0.153840,0.221925,1,1
3401,86,0.349438,-0.064298,0.206088,0.244107,0.172686,1,1
3438,86,0.515385,0.007247,0.200023,0.078275,0.192350,0,1
3402,86,0.318941,0.056226,0.287636,0.157995,0.138213,1,1
3415,86,0.299708,0.091817,0.146298,0.253770,0.286388,1,1
3407,86,0.357571,0.172778,0.166868,0.244362,0.212394,1,0
3404,86,0.317838,0.103924,0.200621,0.194761,0.221339,1,1
3411,86,0.335662,0.087977,0.198716,0.280712,0.270575,1,1
3429,86,0.368435,0.043099,0.117747,0.145517,0.211835,1,1
3435,86,0.307189,-0.098638,0.078065,0.140291,0.178171,0,1
3412,86,0.317296,0.111148,0.196773,0.167576,0.179408,1,1
3409,86,0.401033,0.056042,0.231606,0.189106,0.201842,1,1
3470,87,0.440417,0.037459,0.155439,0.141973,0.174353,1,1
3452,87,0.363973,0.074997,0.173689,0.173496,0.274596,1,1
3478,87,0.261336,-0.108315,0.108155,0.142541,0.170537,0,1
3444,87,0.327474,0.119805,0.172744,0.282884,0.216968,1,0
3472,87,0.277762,-0.061601,0.201797,0.123003,0.190959,1,1
3446,87,0.283441,0.089107,0.229107,0.184844,0.343586,1,1
3466,87,0.324269,0.004093,0.070065,0.221434,0.146122,1,1
3473,87,0.347772,-0.037310,0.094860,0.168635,0.260060,1,1
3467,87,0.344833,-0.097852,-0.020912,0.199634,0.246370,0,1
3476,87,0.306752,-0.045794,0.207206,0.172799,0.184886,1,1
3440,87,0.329920,0.008011,0.312716,0.200916,0.174537,1,1
3477,87,0.464173,-0.034178,0.072409,0.236281,0.272078,0,1
3463,87,0.426086,-0.012209,0.211146,0.157737,0.281180,1,1
3468,87,0.394314,0.109608,0.159242,0.256588,0.203913,1,1
3479,87,0.359763,-0.104370,0.182556,0.123148,0.191890,0,1
3456,87,0.360526,0.049091,0.216493,0.284642,0.270534,1,1
3443,87,0.404284,0.045545,0.088582,0.225783,0.298138,1,1
3449,87,0.409789,0.081032,0.177069,0.204878,0.282840,1,1
3455,87,0.427243,0.070134,0.181300,0.209276,0.340353,1,1
3471,87,0.329565,-0.129961,0.149079,0.175711,0.265576,0,1
3461,87,0.288666,-0.038613,0.177877,0.200413,0.140856,1,1
3460,87,0.377428,-0.089421,0.240983,0.241590,0.176701,0,1
3462,87,0.348484,0.024186,0.113905,0.138773,0.139664,1,1
3450,87,0.386628,0.075684,0.237656,0.214296,0.302840,1,1
3458,87,0.353750,0.115277,0.272042,0.209858,0.287924,1,1
3448,87,0.400461,0.008308,0.264655,0.202501,0.305636,1,1
3474,87,0.311754,-0.061869,0.127022,0.210519,0.311454,1,1
3464,87,0.461018,-0.058710,0.164884,0.125825,0.153025,0,1
3447,87,0.365926,0.073871,0.230073,0.216769,0.234039,1,1
3451,87,0.336861,0.031288,0.110408,0.212595,0.205905,1,1
3457,87,0.332689,0.002389,0.233854,0.254883,0.279954,1,1
3465,87,0.362486,0.002209,0.139749,0.232530,0.186085,1,1
3441,87,0.342297,0.062514,0.193566,0.219077,0.253649,1,1
3445,87,0.401046,0.077580,0.119841,0.151959,0.272592,1,1
3469,87,0.318309,0.032522,0.171915,0.225946,0.160609,1,1
3459,87,0.323445,0.117163,0.208431,0.180873,0.231309,1,1
3453,87,0.338213,0.111459,0.264775,0.289171,0.292845,1,1
3475,87,0.339091,-0.034325,0.153018,0.300775,0.256259,1,1
3454,87,0.282522,-0.015710,0.168433,0.219685,0.246017,1,1
3442,87,0.405225,0.087135,0.214265,0.204001,0.246367,1,1
3484,88,0.336622,0.028630,0.158116,0.181388,0.295309,1,1
3512,88,0.352019,-0.015377,0.169185,0.128143,0.264038,1,1
3506,88,0.326829,-0.091271,0.255894,0.192185,0.185942,0,1
3497,88,0.337862,0.071261,0.223360,0.193808,0.209693,1,1
3513,88,0.329689,0.030023,0.165241,0.260383,0.212014,1,1
3495,88,0.340114,0.027238,0.187813,0.217742,0.222277,1,1
3494,88,0.304259,0.055514,0.188197,0.243355,0.253733,1,1
3487,88,0.346407,0.148958,0.192842,0.261755,0.277518,1,0
3496,88,0.318949,0.055146,0.204121,0.238854,0.196107,1,1
3515,88,0.281567,0.008207,0.128006,0.174802,0.236660,1,1
3517,88,0.273989,-0.054983,0.246162,0.228332,0.190342,1,1
3481,88,0.336398,0.000643,0.176357,0.255119,0.300635,1,1
3509,88,0.335609,0.009487,0.127772,0.195988,0.201582,1,1
3490,88,0.306987,0.056914,0.187127,0.301986,0.234886,1,1
3516,88,0.331009,-0.049847,0.160760,0.208269,0.130611,1,1
3483,88,0.314985,0.104000,0.188480,0.274166,0.220915,1,1
3504,88,0.357641,0.003534,0.197488,0.316415,0.190602,1,1
3493,88,0.247789,0.108052,0.202910,0.278329,0.356748,1,0
3508,88,0.312901,-0.006767,0.131076,0.240857,0.191203,1,1
3518,88,0.371855,-0.093277,0.189077,0.175943,0.239285,0,1
3511,88,0.339773,-0.042170,0.162240,0.188381,0.214536,1,1
3480,88,0.304544,0.015399,0.288497,0.217598,0.249155,1,1
3489,88,0.331679,0.133941,0.156117,0.198463,0.319428,1,0
3503,88,0.419957,0.004633,0.181725,0.169597,0.150486,1,1
3482,88,0.246086,0.015517,0.234420,0.159745,0.280697,1,1
3514,88,0.263751,-0.009777,0.122881,0.098445,0.179139,1,1
3507,88,0.368633,-0.076574,0.079406,0.167328,0.111302,1,1
3485,88,0.257181,0.056935,0.164185,0.140920,0.225073,1,1
3486,88,0.217877,0.107554,0.219302,0.253223,0.265201,1,0
3519,88,0.363963,0.048388,0.224453,0.248470,0.185690,1,1
3492,88,0.231639,-0.033630,0.159038,0.266572,0.311859,1,1
3501,88,0.401869,-0.108047,0.160661,0.228626,0.263700,0,1
3498,88,0.424132,0.071240,0.179981,0.215864,0.223410,1,1
3499,88,0.304743,0.102128,0.184829,0.248173,0.271782,1,1
3500,88,0.407345,-0.032158,0.116251,0.234219,0.238177,1,1
3502,88,0.370220,-0.011669,0.124946,0.140473,0.245902,1,1
3488,88,0.350570,0.087443,0.199524,0.358480,0.319496,1,1
3505,88,0.433361,-0.106198,0.131112,0.100240,0.209520,0,1
3510,88,0.256658,-0.061438,0.080452,0.221050,0.249154,1,1
3491,88,0.324091,0.118272,0.190375,0.197499,0.194395,1,0
3553,89,0.380981,0.001602,0.167570,0.175027,0.240669,1,1
3526,89,0.218540,0.134847,0.265592,0.192023,0.292109,1,0
3545,89,0.344790,-0.033788,0.148384,0.137782,0.168771,1,1
3535,89,0.350156,0.064534,0.132113,0.231632,0.138296,1,1
3547,89,0.412838,0.004748,0.243715,0.234568,0.268100,1,1
3537,89,0.391948,0.129563,0.319729,0.230414,0.260452,1,0
3536,89,0.349195,0.047603,0.162290,0.261507,0.306548,1,1
3556,89,0.348940,-0.050239,0.180865,0.265115,0.172489,1,1
3533,89,0.391565,0.062257,0.218467,0.275519,0.190792,1,1
3530,89,0.341420,0.063794,0.238285,0.192982,0.329782,1,1
3552,89,0.322195,-0.055953,0.218033,0.134557,0.251810,1,1
3558,89,0.392852,0.008166,0.159944,0.129435,0.179862,1,1
3528,89,0.451274,0.084587,0.250986,0.216575,0.335558,1,1
3522,89,0.328944,0.027032,0.230332,0.188662,0.242354,1,1
3538,89,0.300805,0.080570,0.208510,0.261759,0.179641,1,1
3542,89,0.295283,-0.025770,0.082151,0.116436,0.191700,1,1
3546,89,0.453876,-0.057228,0.102210,0.268696,0.228484,0,1
3534,89,0.432286,0.029837,0.287503,0.210572,0.277943,1,1
3524,89,0.241852,0.031045,0.223093,0.205773,0.303131,1,1
3527,89,0.392871,-0.024403,0.126774,0.159225,0.169495,1,1
3557,89,0.391118,-0.048325,0.215894,0.161458,0.246217,1,1
3551,89,0.321920,-0.049164,0.163148,0.115251,0.172896,1,1
3541,89,0.355063,-0.063734,0.113460,0.194660,0.270930,1,1
3525,89,0.266536,0.080169,0.151887,0.258720,0.179026,1,1
3554,89,0.336161,-0.019748,0.148639,0.149469,0.226752,1,1
3555,89,0.291821,-0.003064,0.139977,0.214826,0.268669,1,1
3523,89,0.365128,0.030892,0.255247,0.222009,0.268869,1,1
3520,89,0.403105,0.096103,0.194436,0.140661,0.275657,1,1
3532,89,0.367908,0.029369,0.170264,0.274922,0.257900,1,1
3548,89,0.372287,-0.024470,0.084730,0.172529,0.147287,1,1
3549,89,0.368701,0.064608,0.146280,0.212001,0.190540,1,1
3544,89,0.346194,-0.120257,0.123672,0.179465,0.219692,0,1
3543,89,0.357222,-0.016796,0.157298,0.158425,0.232257,1,1
3521,89,0.371356,0.100538,0.205107,0.220470,0.271442,1,1
3539,89,0.248107,0.060980,0.248954,0.247576,0.306800,1,1
3550,89,0.421634,-0.027552,0.100162,0.181834,0.149442,1,1
3531,89,0.387240,0.067068,0.245997,0.251388,0.238611,1,1
3540,89,0.315299,-0.075288,0.117145,0.105733,0.281205,1,1
3529,89,0.376805,0.071024,0.147649,0.199308,0.219696,1,1
3559,89,0.331071,0.032163,0.216031,0.237135,0.205388,1,1
3597,90,0.469645,-0.003151,0.126111,0.220978,0.201056,1,1
3576,90,0.256364,0.163661,0.121794,0.187932,0.286534,1,0
3581,90,0.358909,-0.033392,0.117767,0.262536,0.174968,1,1
3574,90,0.419414,0.006320,0.165902,0.249084,0.197917,1,1
3594,90,0.266223,-0.018535,0.236047,0.176480,0.251917,1,1
3564,90,0.269060,0.165655,0.117546,0.298427,0.279332,1,0
3592,90,0.353924,-0.026336,0.192142,0.219094,0.217110,1,1
3571,90,0.425725,0.143375,0.142877,0.135702,0.225703,1,0
3566,90,0.392879,0.029163,0.175753,0.188490,0.292034,1,1
3578,90,0.359321,0.071056,0.218025,0.156585,0.234950,1,1
3586,90,0.401061,-0.097328,0.198038,0.109443,0.218274,0,1
3595,90,0.362808,-0.052028,0.161523,0.159887,0.256990,1,1
3591,90,0.323092,-0.028006,0.125788,0.214907,0.261809,1,1
3570,90,0.396105,0.045879,0.099808,0.220837,0.260541,1,1
3577,90,0.352800,0.000267,0.183889,0.326458,0.237726,1,1
3565,90,0.400263,-0.016664,0.259641,0.246635,0.289053,1,1
3599,90,0.453997,0.088729,0.176520,0.227959,0.193618,1,1
3596,90,0.368094,-0.080881,0.152217,0.170468,0.244936,1,1
3568,90,0.356026,0.000023,0.173691,0.250508,0.222900,1,1
3563,90,0.397217,0.162342,0.140655,0.164352,0.223456,1,0
3560,90,0.314107,0.081904,0.239635,0.289940,0.253543,1,1
3598,90,0.316602,-0.015658,0.180942,0.127376,0.326685,1,1
3569,90,0.298937,0.080247,0.221297,0.282196,0.280871,1,1
3567,90,0.303634,0.104627,0.158596,0.211507,0.370643,1,1
3593,90,0.302587,-0.109670,0.167927,0.161533,0.174322,0,1
3579,90,0.315295,0.128595,0.225175,0.220905,0.236496,1,0
3580,90,0.360431,0.048405,0.184898,0.120752,0.199587,1,1
3589,90,0.322218,-0.013334,0.187901,0.135436,0.213584,1,1
3582,90,0.337656,-0.093691,0.167752,0.271418,0.265405,0,1
3588,90,0.431405,0.009393,0.089902,0.246367,0.267878,1,1
3590,90,0.380123,-0.038126,0.145040,0.211537,0.209183,1,1
3584,90,0.401578,-0.032846,0.159070,0.159853,0.252260,1,1
3585,90,0.428434,0.018679,0.163009,0.153635,0.142927,1,1
3573,90,0.286516,0.121503,0.182112,0.256036,0.331800,1,0
3587,90,0.316991,-0.060647,0.148339,0.222052,0.216062,1,1
3561,90,0.380240,-0.011185,0.161822,0.353799,0.203753,1,1
3583,90,0.367007,0.011308,0.224290,0.257504,0.131682,1,1
3562,90,0.425429,0.116717,0.221455,0.265979,0.178745,1,0
3572,90,0.357910,0.027985,0.279795,0.202471,0.261962,1,1
3575,90,0.345348,0.105954,0.117338,0.210995,0.257058,1,1
3611,91,0.309840,0.053757,0.271725,0.251204,0.215184,1,1
3618,91,0.411493,0.062772,0.187661,0.197007,0.278755,1,1
3634,91,0.407446,-0.002714,0.234774,0.235983,0.223189,1,1
3621,91,0.347146,-0.072388,0.229558,0.285941,0.202466,1,1
3609,91,0.326908,0.042736,0.183385,0.182870,0.301865,1,1
3633,91,0.358170,-0.051033,0.229318,0.249726,0.200011,1,1
3623,91,0.309028,-0.002985,0.082813,0.139267,0.150911,1,1
3608,91,0.373184,0.060193,0.120796,0.281926,0.239681,1,1
3624,91,0.401647,-0.141581,0.118746,0.154816,0.216856,0,1
3622,91,0.348462,0.047568,0.151545,0.219111,0.235801,1,1
3631,91,0.383298,0.014163,0.172614,0.309941,0.174876,1,1
3628,91,0.337386,-0.035758,0.205331,0.164932,0.170875,1,1
3615,91,0.253165,0.015625,0.184303,0.147918,0.201629,1,1
3627,91,0.417898,-0.127301,0.081035,0.182772,0.272271,0,1
3619,91,0.395364,0.041957,0.187752,0.261160,0.290104,1,1
3602,91,0.358531,0.066895,0.150543,0.159127,0.298042,1,1
3604,91,0.321807,0.109081,0.176010,0.220071,0.297611,1,1
3600,91,0.280667,0.065598,0.151946,0.197550,0.254107,1,1
3637,91,0.370162,0.050414,0.184036,0.245462,0.160259,1,1
3605,91,0.295502,0.138678,0.279013,0.314906,0.223347,1,0
3603,91,0.294969,0.108963,0.183060,0.368085,0.296650,1,0
3610,91,0.339565,0.091498,0.111173,0.212052,0.247002,1,1
3616,91,0.314615,0.038335,0.079973,0.271062,0.257949,1,1
3617,91,0.317887,0.009218,0.180725,0.258156,0.244678,1,1
3612,91,0.321500,0.046274,0.096886,0.179792,0.282530,1,1
3607,91,0.341184,0.062491,0.198849,0.253971,0.217720,1,1
3601,91,0.349649,0.127673,0.224438,0.198274,0.214747,1,0
3629,91,0.394952,0.023852,0.201772,0.238297,0.270662,1,1
3626,91,0.376539,-0.086227,0.218543,0.204300,0.217517,0,1
3630,91,0.418637,-0.015727,0.138534,0.229696,0.250746,1,1
3620,91,0.242137,-0.013255,0.265409,0.162855,0.246186,1,1
3636,91,0.280681,-0.017001,0.227830,0.118761,0.260635,1,1
3632,91,0.460872,-0.007665,0.186425,0.152148,0.176080,1,1
3635,91,0.408089,-0.001302,0.162189,0.185099,0.226950,1,1
3638,91,0.348459,-0.061382,0.046884,0.278259,0.259394,1,1
3614,91,0.295498,0.001644,0.145893,0.223507,0.278538,1,1
3625,91,0.388623,0.023888,0.141272,0.173430,0.225618,1,1
3639,91,0.407430,-0.056670,0.200001,0.108788,0.233982,1,1
3606,91,0.330639,0.036037,0.227109,0.260500,0.243202,1,1
3613,91,0.329727,0.041970,0.167205,0.223113,0.221929,1,1
3671,92,0.333234,-0.006786,0.165735,0.184453,0.165005,1,1
3667,92,0.390840,-0.093857,0.206237,0.159871,0.247765,0,1
3662,92,0.396461,-0.055268,0.150141,0.178393,0.158613,1,1
3648,92,0.362602,0.153075,0.224723,0.218483,0.196807,1,0
3663,92,0.368385,-0.059757,0.210904,0.258446,0.316078,1,1
3657,92,0.321561,0.028622,0.218105,0.305357,0.360115,1,1
3661,92,0.314401,0.025703,0.147945,0.202401,0.296421,1,1
3647,92,0.333676,-0.009891,0.243889,0.269970,0.205717,1,1
3652,92,0.373364,-0.009413,0.158963,0.292129,0.257519,1,1
3655,92,0.340530,0.202393,0.306401,0.138266,0.177634,1,0
3643,92,0.357960,0.089744,0.213534,0.267145,0.291063,1,1
3656,92,0.385532,-0.040116,0.126152,0.218640,0.226194,1,1
3640,92,0.369221,0.041415,0.181648,0.231214,0.184812,1,1
3658,92,0.449562,0.066564,0.173902,0.271813,0.243449,1,1
3650,92,0.374728,0.097624,0.289901,0.311998,0.152593,1,1
3678,92,0.312870,0.013152,0.140261,0.151128,0.254854,1,1
3660,92,0.385668,0.017846,0.231200,0.217151,0.227602,1,1
3677,92,0.339761,-0.020579,0.103112,0.182639,0.289965,1,1
3673,92,0.345263,-0.088332,0.214159,0.157934,0.324320,0,1
3666,92,0.382904,0.029987,0.180137,0.197082,0.142380,1,1
3672,92,0.349440,-0.017316,0.311938,0.187909,0.197457,1,1
3665,92,0.388683,0.013953,0.282255,0.234038,0.229150,1,1
3679,92,0.348364,-0.089508,0.203935,0.156518,0.195121,0,1
3651,92,0.420173,0.096255,0.208865,0.237291,0.193256,1,1
3664,92,0.416197,-0.117763,0.175663,0.237622,0.155741,0,1
3644,92,0.243580,0.148159,0.207578,0.331390,0.279625,1,0
3641,92,0.373155,-0.012757,0.261514,0.268421,0.251043,1,1
3670,92,0.394348,0.044612,0.185839,0.173253,0.214344,1,1
3675,92,0.322240,-0.027139,0.149771,0.195091,0.210023,1,1
3649,92,0.351687,0.090730,0.204878,0.185903,0.239211,1,1
3668,92,0.420050,-0.063496,0.159095,0.250822,0.213568,1,1
3676,92,0.370064,-0.089838,0.146144,0.133192,0.216156,0,1
3646,92,0.369533,-0.085023,0.245564,0.218723,0.294032,1,1
3674,92,0.321905,-0.014083,0.113558,0.208793,0.259259,1,1
3654,92,0.362333,0.030815,0.209703,0.324549,0.311899,1,1
3653,92,0.376732,0.060629,0.225872,0.219048,0.202924,1,1
3659,92,0.367792,0.118640,0.290546,0.254755,0.335523,1,1
3645,92,0.378194,0.033946,0.141479,0.235243,0.246992,1,1
3669,92,0.346227,-0.076641,0.218887,0.144585,0.256239,1,1
3642,92,0.393599,0.077228,0.298682,0.214921,0.215129,1,1
3714,93,0.322712,0.040006,0.147533,0.237294,0.111162,1,1
3680,93,0.336786,0.022813,0.247560,0.279114,0.294883,1,1
3713,93,0.372549,-0.077366,0.239746,0.163568,0.264357,1,1
3707,93,0.358983,0.023754,0.155690,0.209661,0.183058,1,1
3696,93,0.374790,0.114746,0.161698,0.270944,0.194868,1,1
3699,93,0.396381,0.077653,0.216219,0.238584,0.360617,1,1
3706,93,0.392036,0.033779,0.229209,0.138113,0.254216,1,1
3702,93,0.359127,0.021067,0.169477,0.227928,0.237224,1,1
3718,93,0.440328,-0.097670,0.192677,0.132639,0.274131,0,1
3681,93,0.369634,0.092763,0.200408,0.254950,0.260246,1,1
3708,93,0.469651,-0.100360,0.195906,0.123841,0.225219,0,1
3687,93,0.359251,0.026473,0.239247,0.273785,0.225918,1,1
3712,93,0.320831,-0.071376,0.200739,0.283352,0.234086,1,1
3710,93,0.355793,0.022531,0.206101,0.134230,0.234151,1,1
3684,93,0.448594,0.146662,0.249217,0.241621,0.355585,1,0
3698,93,0.360711,0.096125,0.262818,0.188205,0.385248,1,1
3697,93,0.382101,0.076914,0.217152,0.285895,0.293268,1,1
3709,93,0.390744,0.005586,0.185707,0.275937,0.209443,1,1
3705,93,0.298186,-0.039028,0.079337,0.176843,0.141890,1,1
3704,93,0.349096,-0.093481,0.131154,0.326823,0.247615,0,1
3691,93,0.406913,-0.005002,0.152139,0.229268,0.211050,1,1
3694,93,0.308074,0.133010,0.127989,0.270496,0.284629,1,0
3692,93,0.439596,0.189007,0.189739,0.168029,0.189612,1,0
3688,93,0.345340,0.101864,0.288880,0.255072,0.231516,1,1
3700,93,0.349512,0.034624,0.096435,0.138183,0.270750,1,1
3689,93,0.370355,0.030944,0.289612,0.348579,0.268077,1,1
3715,93,0.334809,0.041256,0.151205,0.105675,0.202925,1,1
3685,93,0.519206,-0.001116,0.164382,0.222522,0.384861,1,1
3719,93,0.350386,-0.121157,0.202488,0.136151,0.164247,0,1
3717,93,0.332560,-0.058410,0.034629,0.205619,0.224802,1,1
3682,93,0.253557,0.090184,0.239029,0.282741,0.202461,1,0
3683,93,0.302203,0.064871,0.154562,0.242249,0.300430,1,1
3695,93,0.412098,-0.040155,0.304565,0.189172,0.201314,1,1
3711,93,0.424928,-0.127728,0.108704,0.212671,0.181926,0,1
3690,93,0.340543,0.095118,0.196823,0.243866,0.300451,1,1
3686,93,0.425889,0.185741,0.240668,0.194116,0.286858,1,0
3701,93,0.306538,0.007085,0.180480,0.121360,0.265108,1,1
3693,93,0.390096,0.014819,0.274078,0.323602,0.342159,1,1
3716,93,0.256395,-0.123002,0.185769,0.217454,0.250729,0,1
3703,93,0.342574,0.022289,0.160193,0.213536,0.207386,1,1
3732,94,0.407364,0.039592,0.310155,0.236261,0.258008,1,1
3725,94,0.396499,0.175678,0.191740,0.232407,0.220003,1,0
3755,94,0.290247,-0.011393,0.168767,0.155004,0.164236,1,1
3748,94,0.410818,-0.141868,0.144337,0.215841,0.201820,0,1
3752,94,0.421882,-0.135984,0.185960,0.212478,0.251201,0,1
3744,94,0.396703,-0.020944,0.119548,0.311173,0.298015,1,1
3739,94,0.395944,0.021918,0.147104,0.252219,0.334202,1,1
3745,94,0.353745,-0.033127,0.194541,0.154265,0.274664,1,1
3721,94,0.334667,0.086679,0.198365,0.236015,0.201392,1,1
3740,94,0.343324,-0.001945,0.208187,0.129642,0.273715,1,1
3730,94,0.388668,0.053972,0.157430,0.330419,0.359939,1,1
3749,94,0.365743,0.038459,0.182944,0.250167,0.344564,1,1
3737,94,0.454452,0.003055,0.206020,0.223102,0.299086,1,1
3742,94,0.408759,0.024399,0.207708,0.225431,0.207871,1,1
3759,94,0.260377,-0.021507,0.198673,0.178133,0.248289,1,1
3738,94,0.390159,0.050987,0.136561,0.263795,0.346485,1,1
3756,94,0.446727,-0.039048,0.138738,0.216320,0.195294,1,1
3733,94,0.391367,0.076918,0.232080,0.188821,0.269190,1,1
3747,94,0.405428,-0.169885,0.235509,0.251802,0.246228,0,1
3741,94,0.370303,-0.010807,0.187001,0.196567,0.229129,1,1
3753,94,0.392857,-0.069214,0.138428,0.083989,0.266914,1,1
3727,94,0.331814,0.068256,0.251944,0.277764,0.288737,1,1
3751,94,0.376364,0.026413,0.104827,0.140112,0.252086,1,1
3723,94,0.396858,0.137991,0.174211,0.143642,0.353519,1,0
3758,94,0.315663,0.026331,0.214280,0.198102,0.225673,1,1
3729,94,0.467907,0.052297,0.277971,0.312450,0.242937,1,1
3757,94,0.431280,-0.106556,0.146913,0.269501,0.226975,0,1
3743,94,0.437288,0.015556,0.091273,0.275909,0.166687,1,1
3728,94,0.352424,0.113217,0.214128,0.239997,0.221811,1,1
3754,94,0.393130,-0.058988,0.144094,0.207762,0.321796,1,1
3726,94,0.530407,0.034091,0.185470,0.236110,0.276522,1,0
3736,94,0.452627,0.083386,0.289958,0.343236,0.257072,1,1
3720,94,0.453910,0.059330,0.247067,0.193922,0.191265,1,1
3735,94,0.377244,0.093177,0.182139,0.249202,0.257550,1,1
3750,94,0.311943,-0.066228,0.182031,0.179698,0.245354,1,1
3746,94,0.444426,0.025667,0.119819,0.202714,0.265574,1,1
3724,94,0.375354,0.013689,0.244021,0.255651,0.274648,1,1
3722,94,0.397664,0.070033,0.152490,0.221446,0.255992,1,1
3734,94,0.336014,-0.021506,0.298390,0.257049,0.336743,1,1
3731,94,0.427560,0.091309,0.140199,0.189748,0.317620,1,1
3791,95,0.361013,-0.002487,0.201506,0.214612,0.261455,1,1
3777,95,0.402053,0.048755,0.202367,0.213166,0.239842,1,1
3797,95,0.431890,0.018563,0.216533,0.275124,0.141351,1,1
3789,95,0.574252,-0.065458,0.170867,0.172018,0.231340,0,1
3774,95,0.387562,0.019738,0.241866,0.252785,0.298504,1,1
3762,95,0.402334,0.084251,0.166463,0.287821,0.288399,1,1
3780,95,0.347713,-0.064214,0.250270,0.111764,0.208424,1,1
3798,95,0.350597,-0.030801,0.199960,0.286114,0.222734,1,1
3768,95,0.400015,0.118717,0.245772,0.167521,0.268623,1,1
3786,95,0.335721,-0.030639,0.247283,0.173014,0.239731,1,1
3767,95,0.387385,0.109943,0.149320,0.219624,0.241343,1,1
3769,95,0.364797,0.068800,0.164139,0.339281,0.255078,1,1
3765,95,0.343284,-0.009012,0.250199,0.270051,0.234781,1,1
3794,95,0.397950,-0.048421,0.202361,0.208386,0.215183,1,1
3772,95,0.449648,0.074575,0.268362,0.318200,0.202275,1,1
3773,95,0.408695,0.172996,0.196565,0.291204,0.316524,1,0
3761,95,0.322705,0.096070,0.246041,0.276868,0.250334,1,1
3763,95,0.407657,0.054827,0.249961,0.298304,0.299383,1,1
3764,95,0.354438,0.153343,0.302135,0.336395,0.237300,1,0
3784,95,0.358668,-0.039870,0.256768,0.159442,0.231839,1,1
3771,95,0.400260,-0.013718,0.258990,0.254410,0.268314,1,1
3781,95,0.394422,-0.031416,0.187851,0.318808,0.166885,1,1
3796,95,0.417018,0.056882,0.191668,0.263647,0.285934,1,1
3766,95,0.327333,-0.002661,0.136391,0.190729,0.310830,1,1
3792,95,0.364400,0.078536,0.220679,0.152594,0.226014,1,1
3770,95,0.380659,0.105733,0.168189,0.270608,0.301251,1,1
3795,95,0.406097,-0.036294,0.196299,0.074178,0.234966,1,1
3779,95,0.402909,0.077075,0.125625,0.098704,0.345265,1,1
3785,95,0.453164,-0.066877,0.164112,0.253962,0.345043,1,1
3787,95,0.418226,0.026214,0.143638,0.195367,0.237167,1,1
3782,95,0.389034,0.044487,0.224928,0.179198,0.245096,1,1
3788,95,0.371966,0.021827,0.148866,0.185137,0.223906,1,1
3799,95,0.320650,-0.009240,0.254226,0.174066,0.237381,1,1
3775,95,0.307092,0.106141,0.279245,0.272498,0.230044,1,0
3790,95,0.372240,-0.056672,0.185541,0.128884,0.269155,1,1
3783,95,0.385582,-0.039992,0.143009,0.160552,0.156319,1,1
3776,95,0.339093,0.092865,0.114332,0.212206,0.205411,1,1
3760,95,0.404471,0.068468,0.244605,0.281261,0.237822,1,1
3778,95,0.267889,-0.035004,0.235349,0.239062,0.255197,1,1
3793,95,0.327391,-0.010930,0.185450,0.198570,0.174886,1,1
3825,96,0.453967,-0.005244,0.219027,0.235908,0.186371,1,1
3809,96,0.423263,0.054658,0.100583,0.255961,0.272769,1,1
3834,96,0.405864,0.010220,0.153829,0.204839,0.204591,1,1
3807,96,0.410993,0.048744,0.259441,0.231628,0.282466,1,1
3805,96,0.394823,0.163668,0.291183,0.255886,0.292637,1,0
3828,96,0.363320,0.076980,0.253972,0.095197,0.179026,1,1
3826,96,0.336073,0.038392,0.201764,0.206833,0.246310,1,1
3808,96,0.397122,0.018180,0.318292,0.312679,0.220885,1,1
3822,96,0.473916,-0.081206,0.197030,0.215074,0.254634,0,1
3836,96,0.461610,-0.017560,0.102865,0.284147,0.270179,1,1
3817,96,0.416609,0.059329,0.166035,0.221046,0.264521,1,1
3824,96,0.492633,0.025844,0.160268,0.229592,0.276334,1,1
3833,96,0.424558,-0.006178,0.163262,0.205180,0.249064,1,1
3819,96,0.533472,0.039451,0.313823,0.288834,0.241225,1,0
3835,96,0.445371,-0.030549,0.182030,0.171420,0.229918,1,1
3804,96,0.353347,0.087046,0.273500,0.216198,0.287522,1,1
3810,96,0.441740,0.072915,0.197384,0.263703,0.297256,1,1
3827,96,0.407942,0.006920,0.129609,0.198556,0.237016,1,1
3812,96,0.473732,0.087052,0.148051,0.249714,0.359638,1,1
3803,96,0.357418,0.042520,0.242973,0.197415,0.316278,1,1
3832,96,0.410035,-0.006354,0.132262,0.270751,0.244383,1,1
3830,96,0.396556,-0.102502,0.115104,0.237372,0.274831,0,1
3823,96,0.344556,-0.166557,0.121893,0.214779,0.164223,0,1
3800,96,0.357847,0.045738,0.103963,0.182160,0.354958,1,1
3818,96,0.447474,-0.027965,0.244159,0.202926,0.297650,1,1
3829,96,0.387776,-0.054090,0.124333,0.135064,0.256957,1,1
3814,96,0.403270,0.102845,0.169400,0.228671,0.290648,1,1
3820,96,0.341105,-0.066965,0.177550,0.206952,0.141750,1,1
3838,96,0.370247,-0.128703,0.173271,0.138217,0.225242,0,1
3821,96,0.386476,-0.037788,0.164670,0.156628,0.256243,1,1
3806,96,0.345363,0.015591,0.185906,0.300522,0.219465,1,1
3815,96,0.370644,0.117809,0.283100,0.230052,0.311355,1,1
3831,96,0.298079,-0.004188,0.164505,0.218137,0.224609,1,1
3816,96,0.290562,0.040812,0.229820,0.229581,0.306840,1,1
3839,96,0.447704,0.001231,0.180804,0.164747,0.193860,1,1
3813,96,0.400630,0.060820,0.263089,0.109159,0.218846,1,1
3801,96,0.439931,0.138649,0.283303,0.186363,0.356114,1,0
3837,96,0.427689,-0.015697,0.289378,0.265664,0.216593,1,1
3802,96,0.393015,0.073725,0.177949,0.260059,0.270697,1,1
3811,96,0.343871,0.152940,0.289785,0.182500,0.249844,1,0
3841,97,0.400785,0.069404,0.238762,0.228123,0.321376,1,1
3855,97,0.382071,0.070554,0.187448,0.204151,0.316476,1,1
3851,97,0.474380,0.110182,0.232893,0.281072,0.185328,1,0
3875,97,0.413327,-0.072615,0.262115,0.253504,0.252446,1,1
3861,97,0.429360,-0.027680,0.219995,0.230899,0.196635,1,1
3866,97,0.298792,-0.014789,0.113167,0.185432,0.215846,1,1
3862,97,0.329929,-0.021900,0.220469,0.166555,0.282665,1,1
3868,97,0.463169,0.024552,0.204940,0.225608,0.263183,1,1
3870,97,0.393281,-0.028579,0.200564,0.229162,0.212965,1,1
3874,97,0.357069,0.017806,0.190580,0.218309,0.244854,1,1
3864,97,0.452387,-0.086589,0.218465,0.201037,0.206056,0,1
3844,97,0.379063,0.094376,0.183618,0.214072,0.224661,1,1
3850,97,0.380668,0.091001,0.206453,0.345697,0.240014,1,1
3876,97,0.380840,-0.054285,0.195191,0.210270,0.312533,1,1
3848,97,0.435697,0.051054,0.248386,0.275023,0.368003,1,1
3865,97,0.398205,-0.005388,0.148720,0.209892,0.173813,1,1
3849,97,0.462806,0.146799,0.248714,0.260975,0.282698,1,0
3846,97,0.327479,0.056899,0.181414,0.270715,0.322530,1,1
3872,97,0.370317,-0.099849,0.187896,0.250740,0.226604,0,1
3854,97,0.456199,0.010826,0.284301,0.234182,0.241219,1,1
3859,97,0.412744,0.037223,0.232642,0.273788,0.240602,1,1
3842,97,0.460361,-0.011754,0.156196,0.134644,0.243584,1,1
3845,97,0.304050,0.154728,0.258625,0.320203,0.231831,1,0
3852,97,0.433222,0.057394,0.150587,0.273240,0.280423,1,1
3860,97,0.362125,0.030356,0.191420,0.175366,0.229138,1,1
3843,97,0.414357,0.095015,0.217686,0.238797,0.262841,1,1
3840,97,0.365672,0.063260,0.270722,0.304626,0.302053,1,1
3856,97,0.455906,0.048539,0.107643,0.313741,0.302030,1,1
3877,97,0.461754,0.060407,0.106541,0.198160,0.189705,1,1
3867,97,0.329201,-0.053373,0.122171,0.168597,0.312573,1,1
3871,97,0.437688,-0.113475,0.143285,0.181447,0.214638,0,1
3878,97,0.398837,-0.006927,0.265848,0.159787,0.203240,1,1
3879,97,0.354020,-0.047027,0.165642,0.252496,0.278930,1,1
3863,97,0.286581,-0.093037,0.181844,0.212335,0.212323,0,1
3858,97,0.319573,0.069722,0.191812,0.334164,0.277303,1,1
3853,97,0.356281,0.095410,0.193026,0.318500,0.292588,1,1
3869,97,0.344402,-0.138612,0.228377,0.302033,0.314347,0,1
3857,97,0.493840,0.098304,0.335906,0.155414,0.364210,1,0
3873,97,0.378324,0.014490,0.191316,0.119612,0.359403,1,1
3847,97,0.379746,0.096423,0.157923,0.250828,0.226903,1,1
3915,98,0.382637,-0.086399,0.114514,0.216144,0.284824,1,1
3903,98,0.430664,-0.088130,0.202944,0.238129,0.250043,0,1
3901,98,0.465460,-0.094940,0.157377,0.248318,0.258287,0,1
3884,98,0.419752,0.046024,0.241744,0.244726,0.241475,1,1
3897,98,0.419157,0.096261,0.282031,0.205833,0.370812,1,1
3919,98,0.338171,-0.042826,0.098356,0.164825,0.247941,1,1
3913,98,0.465859,-0.113189,0.188042,0.220428,0.255128,0,1
3914,98,0.428925,0.030551,0.211673,0.171252,0.251241,1,1
3881,98,0.321960,0.101395,0.248414,0.217610,0.244569,1,1
3909,98,0.351969,-0.056861,0.226774,0.261399,0.224248,1,1
3911,98,0.389066,0.030166,0.237244,0.115817,0.162318,1,1
3882,98,0.372391,0.055799,0.223152,0.283484,0.310301,1,1
3900,98,0.358237,-0.001780,0.112957,0.236971,0.284138,1,1
3905,98,0.398078,-0.008801,0.110090,0.260001,0.185229,1,1
3899,98,0.320040,0.070762,0.291775,0.284044,0.345572,1,1
3910,98,0.342585,-0.059167,0.209506,0.241276,0.296264,1,1
3896,98,0.418517,0.054861,0.269675,0.232931,0.231045,1,1
3907,98,0.482262,0.000305,0.154901,0.320290,0.253219,1,1
3885,98,0.403279,0.071365,0.148522,0.315558,0.213310,1,1
3895,98,0.397390,0.158143,0.279597,0.289321,0.259359,1,0
3887,98,0.361076,0.003747,0.219374,0.266858,0.337368,1,1
3892,98,0.400463,0.039603,0.249852,0.210939,0.271191,1,1
3917,98,0.316838,0.029123,0.136554,0.101412,0.258811,1,1
3889,98,0.420332,0.038050,0.191680,0.223163,0.338755,1,1
3906,98,0.462600,0.038658,0.156935,0.114020,0.140627,1,1
3894,98,0.409227,0.004000,0.233501,0.241812,0.334298,1,1
3904,98,0.424376,0.074493,0.113087,0.287058,0.103333,1,1
3886,98,0.358341,0.018037,0.153376,0.273772,0.211644,1,1
3883,98,0.373314,0.083423,0.183820,0.296876,0.289304,1,1
3902,98,0.354726,-0.058037,0.163081,0.148731,0.172994,1,1
3912,98,0.324528,-0.019258,0.109426,0.224154,0.247055,1,1
3918,98,0.354165,0.005491,0.156491,0.251463,0.273818,1,1
3888,98,0.319720,0.116025,0.265791,0.284204,0.288439,1,0
3891,98,0.466079,0.120928,0.229772,0.198969,0.183792,1,0
3890,98,0.297727,-0.041048,0.396055,0.217900,0.272524,1,1
3893,98,0.393410,0.158462,0.161205,0.239901,0.316563,1,0
3908,98,0.375957,0.016443,0.239001,0.218548,0.238810,1,1
3916,98,0.346934,0.000852,0.141487,0.162648,0.188355,1,1
3898,98,0.413227,0.113544,0.314319,0.238320,0.209849,1,1
3880,98,0.381016,0.125117,0.274636,0.362533,0.181804,1,0
3945,99,0.432798,-0.004453,0.183663,0.175188,0.230322,1,1
3951,99,0.433128,-0.087335,0.162993,0.189368,0.279145,0,1
3925,99,0.442256,0.054303,0.268824,0.181919,0.212898,1,1
3948,99,0.395174,0.018520,0.210638,0.228288,0.281986,1,1
3941,99,0.447167,-0.099407,0.123948,0.242997,0.305926,0,1
3950,99,0.477052,-0.034675,0.314395,0.285316,0.280021,1,1
3932,99,0.438887,0.101256,0.200723,0.204955,0.191767,1,1
3923,99,0.340962,0.048613,0.247565,0.309151,0.315871,1,1
3952,99,0.342321,0.020425,0.117258,0.212108,0.195208,1,1
3937,99,0.436245,0.086476,0.330648,0.297182,0.220264,1,1
3934,99,0.405082,0.029530,0.172497,0.329765,0.202232,1,1
3924,99,0.435086,0.027279,0.219335,0.289217,0.243410,1,1
3931,99,0.457873,-0.028966,0.223445,0.286867,0.295131,1,1
3942,99,0.436960,-0.011358,0.203470,0.162180,0.200238,1,1
3940,99,0.451667,-0.024706,0.172455,0.248148,0.212317,1,1
3955,99,0.473575,-0.034363,0.261571,0.221354,0.226777,1,1
3958,99,0.418587,-0.013894,0.117696,0.253925,0.174403,1,1
3956,99,0.431481,-0.075166,0.282799,0.170701,0.233864,1,1
3959,99,0.405379,-0.105416,0.169025,0.212589,0.215272,0,1
3947,99,0.279712,-0.013841,0.152555,0.154093,0.307940,1,1
3927,99,0.322474,0.076127,0.228167,0.261171,0.281628,1,1
3939,99,0.396024,0.125150,0.198708,0.278324,0.276325,1,0
3930,99,0.378647,0.029259,0.223773,0.256279,0.309086,1,1
3938,99,0.373939,0.007216,0.197232,0.125675,0.313532,1,1
3936,99,0.422002,0.015962,0.251178,0.246571,0.190111,1,1
3949,99,0.356908,-0.089995,0.230364,0.114442,0.264462,0,1
3928,99,0.454871,0.042564,0.228235,0.200328,0.281538,1,1
3957,99,0.386486,0.034821,0.197754,0.183720,0.234215,1,1
3926,99,0.376688,0.103008,0.141264,0.193037,0.313277,1,1
3929,99,0.463955,0.027214,0.262299,0.198033,0.235198,1,1
3920,99,0.410073,0.084935,0.200425,0.273980,0.285832,1,1
3944,99,0.364016,-0.033838,0.185089,0.088231,0.360729,1,1
3946,99,0.339297,0.022175,0.225838,0.212841,0.159302,1,1
3933,99,0.376566,0.101890,0.200048,0.308394,0.235805,1,1
3953,99,0.390536,-0.014242,0.201661,0.146477,0.134395,1,1
3921,99,0.451161,0.077669,0.226017,0.289623,0.366267,1,1
3922,99,0.463846,0.063251,0.238144,0.251120,0.354177,1,1
3943,99,0.301290,-0.048753,0.258659,0.147568,0.221204,1,1
3954,99,0.405820,-0.079666,0.244725,0.247172,0.288535,1,1
3935,99,0.375540,0.159365,0.219279,0.281721,0.274917,1,0
3970,100,0.353163,0.107326,0.281652,0.211184,0.341665,1,1
3990,100,0.304730,-0.011629,0.188777,0.244409,0.209141,1,1
3964,100,0.415477,0.124090,0.165896,0.187079,0.294684,1,0
3977,100,0.384283,0.067651,0.256520,0.177635,0.266464,1,1
3988,100,0.287892,-0.048447,0.246900,0.187342,0.173549,0,1
3995,100,0.413581,0.049208,0.162816,0.247404,0.167339,1,1
3987,100,0.364328,-0.138428,0.212370,0.151007,0.246157,0,1
3979,100,0.429752,0.045174,0.169950,0.246808,0.323020,1,1
3965,100,0.396556,0.137244,0.247823,0.313052,0.285816,1,0
3984,100,0.429429,0.038653,0.116500,0.220393,0.221368,1,1
3978,100,0.466639,0.006692,0.288319,0.283347,0.304183,1,1
3969,100,0.381415,0.036604,0.301326,0.335248,0.292996,1,1
3966,100,0.477114,0.041098,0.269231,0.216337,0.333899,1,1
3983,100,0.345067,-0.127514,0.090312,0.194267,0.194120,0,1
3992,100,0.298650,-0.038704,0.156426,0.202806,0.329199,1,1
3961,100,0.380562,0.134927,0.242054,0.189877,0.269865,1,0
3999,100,0.410020,-0.002617,0.226009,0.286930,0.215175,1,1
3963,100,0.392489,0.109944,0.167096,0.249724,0.324243,1,1
3998,100,0.360519,-0.053613,0.150811,0.175173,0.175006,1,1
3994,100,0.511941,0.013713,0.206886,0.233790,0.248848,1,1
3967,100,0.324321,-0.001200,0.264023,0.166067,0.294681,1,1
3962,100,0.333149,0.002523,0.225119,0.212154,0.243645,1,1
3997,100,0.431278,-0.056709,0.156200,0.176415,0.189825,1,1
3976,100,0.468583,0.158843,0.241857,0.235204,0.340681,1,0
3960,100,0.453281,0.068687,0.204157,0.259982,0.235555,1,1
3974,100,0.421921,0.054702,0.279457,0.239351,0.367223,1,1
3981,100,0.440626,-0.048718,0.119321,0.165674,0.258169,1,1
3982,100,0.438030,-0.027611,0.183029,0.249819,0.209958,1,1
3968,100,0.433847,0.036396,0.197549,0.367201,0.343524,1,1
3989,100,0.343165,-0.152763,0.136830,0.194644,0.249248,0,1
3985,100,0.407374,-0.032966,0.195673,0.171151,0.316198,1,1
3973,100,0.267340,0.020242,0.314261,0.336624,0.307204,1,1
3993,100,0.414168,-0.045705,0.213335,0.235296,0.239022,1,1
3975,100,0.363260,0.091882,0.231404,0.171404,0.140313,1,1
3980,100,0.403238,-0.041430,0.215827,0.296875,0.226817,1,1
3972,100,0.359527,0.038901,0.217259,0.143288,0.290235,1,1
3991,100,0.410308,-0.043667,0.133218,0.263977,0.190619,1,1
3986,100,0.474954,0.009784,0.150904,0.169987,0.194784,1,1
3996,100,0.461760,-0.067103,0.231792,0.260323,0.335397,1,1
3971,100,0.449810,-0.010818,0.192310,0.259986,0.241640,1,1