@relation stream_gen

@attribute global_id NUMERIC
@attribute timestamp NUMERIC
@attribute f1 NUMERIC
@attribute f2 NUMERIC
@attribute f3 NUMERIC
@attribute f4 NUMERIC
@attribute f5 NUMERIC
@attribute f6 NUMERIC
@attribute f7 NUMERIC
@attribute class_0 {0,1}
@attribute class_1 {0,1}

@data
29,1,-0.791601,0.146344,-0.313225,-0.273655,-0.369140,-0.218176,-0.364225,1,1
3,1,-0.825966,0.132350,-0.337521,-0.293174,-0.276483,-0.282446,-0.314066,1,1
22,1,-0.780275,0.100654,-0.373051,-0.281404,-0.280197,-0.220030,-0.268933,1,1
18,1,-0.787546,0.158836,-0.266195,-0.316884,-0.222082,-0.182639,-0.290672,1,1
21,1,-0.825678,0.238529,-0.321391,-0.411705,-0.310195,-0.291040,-0.313313,1,1
6,1,-0.770935,0.165990,-0.234603,-0.296693,-0.271402,-0.284817,-0.252385,1,1
28,1,-0.884302,0.197215,-0.351310,-0.307304,-0.166242,-0.320577,-0.382444,1,1
35,1,-0.718134,0.220311,-0.261280,-0.347545,-0.285290,-0.229765,-0.289055,1,1
37,1,-0.691674,0.243424,-0.258599,-0.275352,-0.339960,-0.234302,-0.353998,1,1
5,1,-0.753603,0.126589,-0.304122,-0.341094,-0.225574,-0.261976,-0.341403,1,1
23,1,-0.850334,0.164890,-0.359138,-0.301431,-0.236937,-0.266684,-0.398016,1,1
39,1,-0.759182,0.209150,-0.303586,-0.252864,-0.333299,-0.200330,-0.256090,1,1
34,1,-0.777170,0.212695,-0.440035,-0.239127,-0.269074,-0.344163,-0.341100,1,1
20,1,-0.780706,0.143179,-0.338327,-0.309551,-0.221172,-0.299821,-0.241665,1,1
0,1,-0.827008,0.066541,-0.281778,-0.269352,-0.226264,-0.274400,-0.410994,1,1
15,1,-0.845095,0.185951,-0.334385,-0.318259,-0.263252,-0.320487,-0.371858,1,1
12,1,-0.799455,0.255492,-0.234023,-0.236432,-0.351998,-0.235722,-0.365108,1,1
7,1,-0.743553,0.249981,-0.242328,-0.169165,-0.315568,-0.290634,-0.247990,1,1
24,1,-0.819871,0.251232,-0.337518,-0.294559,-0.311203,-0.265531,-0.252166,1,1
36,1,-0.827073,0.296185,-0.321816,-0.244524,-0.220104,-0.330794,-0.385521,1,1
8,1,-0.746323,0.192034,-0.294392,-0.213807,-0.239300,-0.229763,-0.328924,1,1
25,1,-0.772093,0.219527,-0.402549,-0.294102,-0.234562,-0.295211,-0.200746,1,1
38,1,-0.763306,0.122724,-0.277589,-0.317394,-0.296403,-0.271474,-0.302088,1,1
32,1,-0.770517,0.130652,-0.285724,-0.333282,-0.216382,-0.306987,-0.363662,1,1
33,1,-0.762586,0.174153,-0.311686,-0.323279,-0.374377,-0.250294,-0.395847,1,1
31,1,-0.780358,0.193231,-0.300493,-0.258021,-0.292551,-0.286148,-0.313051,1,1
9,1,-0.784142,0.182327,-0.322643,-0.275014,-0.332684,-0.223727,-0.327977,1,1
2,1,-0.867078,0.088102,-0.382967,-0.390820,-0.219533,-0.267236,-0.304279,1,1
13,1,-0.836862,0.252820,-0.253002,-0.240905,-0.288979,-0.241437,-0.307956,1,1
10,1,-0.892552,0.192153,-0.299095,-0.305714,-0.201761,-0.278015,-0.355166,1,1
19,1,-0.745697,0.291005,-0.254818,-0.335763,-0.280686,-0.291123,-0.339100,1,1
16,1,-0.850224,0.169122,-0.365352,-0.340638,-0.228807,-0.240788,-0.360725,1,1
1,1,-0.809631,0.193034,-0.204269,-0.276135,-0.301745,-0.226557,-0.347259,1,1
26,1,-0.774915,0.234919,-0.381147,-0.337431,-0.248586,-0.335763,-0.343039,1,1
4,1,-0.806010,0.213175,-0.323742,-0.214091,-0.270101,-0.328947,-0.257456,1,1
27,1,-0.842993,0.255174,-0.279520,-0.302221,-0.243054,-0.278269,-0.358565,1,1
14,1,-0.842438,0.284095,-0.301714,-0.265473,-0.242126,-0.249814,-0.283300,1,1
30,1,-0.792337,0.114149,-0.309675,-0.326918,-0.311222,-0.313139,-0.332912,1,1
17,1,-0.795908,0.177741,-0.233494,-0.259712,-0.256040,-0.210822,-0.283474,1,1
11,1,-0.773420,0.233319,-0.312791,-0.306268,-0.172364,-0.173673,-0.325177,1,1
62,2,-0.843325,0.114772,-0.265284,-0.243373,-0.271276,-0.290230,-0.320674,1,1
77,2,-0.828315,-0.003848,-0.378832,-0.275976,-0.319418,-0.294309,-0.308951,0,1
69,2,-0.776163,0.112125,-0.266896,-0.204189,-0.222932,-0.351999,-0.279603,1,1
40,2,-0.763036,0.274194,-0.244157,-0.248556,-0.331578,-0.222434,-0.143846,1,1
65,2,-0.872592,0.142473,-0.297581,-0.244020,-0.281966,-0.326670,-0.361941,1,1
66,2,-0.746286,0.224994,-0.269616,-0.290224,-0.320383,-0.276422,-0.260491,1,1
44,2,-0.906912,0.223601,-0.283077,-0.371652,-0.235996,-0.230456,-0.228301,1,1
56,2,-0.782164,0.229962,-0.414662,-0.312969,-0.116076,-0.245308,-0.333142,1,1
71,2,-0.826214,0.175284,-0.393678,-0.187624,-0.281514,-0.262508,-0.324599,1,1
43,2,-0.813591,0.197296,-0.281313,-0.351752,-0.250864,-0.241381,-0.389700,1,1
68,2,-0.771433,0.240271,-0.283294,-0.283573,-0.233847,-0.239923,-0.395494,1,1
42,2,-0.894220,0.150861,-0.218511,-0.276547,-0.276029,-0.300379,-0.264268,1,1
63,2,-0.816798,0.096778,-0.304838,-0.262597,-0.252021,-0.272850,-0.268606,1,1
76,2,-0.767279,0.216363,-0.244703,-0.355149,-0.306091,-0.338017,-0.345301,1,1
49,2,-0.792168,0.240451,-0.257849,-0.288444,-0.314595,-0.268113,-0.382217,1,1
50,2,-0.861216,0.245676,-0.332836,-0.288416,-0.162782,-0.268237,-0.274879,1,1
61,2,-0.763004,0.175480,-0.394543,-0.226706,-0.195977,-0.371916,-0.357149,1,1
60,2,-0.757458,0.182444,-0.344155,-0.257934,-0.309115,-0.245065,-0.342761,1,1
51,2,-0.773615,0.152875,-0.303503,-0.292163,-0.305262,-0.369425,-0.308684,1,1
55,2,-0.843204,0.172846,-0.301346,-0.243809,-0.260236,-0.275658,-0.337961,1,1
58,2,-0.825003,0.148041,-0.265423,-0.283092,-0.285230,-0.296433,-0.219308,1,1
78,2,-0.799690,0.147582,-0.264077,-0.339077,-0.324048,-0.314945,-0.279401,1,1
74,2,-0.765200,0.168969,-0.245405,-0.292666,-0.314918,-0.423629,-0.283746,1,1
70,2,-0.776195,0.162264,-0.360695,-0.283523,-0.247509,-0.260823,-0.400837,1,1
72,2,-0.794717,0.247740,-0.326772,-0.303316,-0.201302,-0.289336,-0.378518,1,1
57,2,-0.781270,0.255525,-0.336765,-0.221905,-0.250648,-0.270199,-0.315749,1,1
79,2,-0.833192,0.173046,-0.364563,-0.355791,-0.288379,-0.296330,-0.279304,1,1
67,2,-0.769287,0.099731,-0.253052,-0.313594,-0.258101,-0.267104,-0.338056,1,1
52,2,-0.793316,0.210590,-0.227971,-0.333369,-0.285945,-0.192019,-0.306159,1,1
64,2,-0.838163,0.097456,-0.234154,-0.369095,-0.181607,-0.244725,-0.318678,1,1
41,2,-0.738447,0.198366,-0.303404,-0.298107,-0.311702,-0.337079,-0.240494,1,1
47,2,-0.838254,0.224119,-0.257302,-0.300448,-0.228298,-0.407435,-0.271031,1,1
46,2,-0.786742,0.188296,-0.373801,-0.293250,-0.209515,-0.405585,-0.334119,1,1
53,2,-0.808809,0.168729,-0.335975,-0.214112,-0.236327,-0.317890,-0.371735,1,1
45,2,-0.786822,0.283812,-0.335540,-0.215001,-0.283913,-0.200961,-0.243538,1,1
54,2,-0.723154,0.144152,-0.247124,-0.327327,-0.264610,-0.299522,-0.322678,1,1
59,2,-0.774745,0.151189,-0.266941,-0.288782,-0.364264,-0.301782,-0.281689,1,1
48,2,-0.804211,0.144069,-0.279603,-0.211347,-0.286293,-0.384156,-0.282932,1,1
75,2,-0.826811,0.149872,-0.330708,-0.282648,-0.291222,-0.268678,-0.368020,1,1
73,2,-0.784746,0.190222,-0.321340,-0.280013,-0.203895,-0.248019,-0.276629,1,1
112,3,-0.772710,0.135225,-0.371183,-0.229345,-0.283793,-0.334162,-0.305852,1,1
106,3,-0.743799,0.124214,-0.294599,-0.232506,-0.223235,-0.283627,-0.206755,1,1
92,3,-0.853145,0.129083,-0.353314,-0.272747,-0.259991,-0.276113,-0.347454,1,1
101,3,-0.785456,0.218271,-0.371308,-0.265443,-0.221598,-0.316674,-0.313390,1,1
117,3,-0.787244,0.189522,-0.235875,-0.268412,-0.210451,-0.257646,-0.320377,1,1
102,3,-0.792431,0.199529,-0.228349,-0.231925,-0.299829,-0.282175,-0.315620,1,1
110,3,-0.838781,0.238327,-0.410473,-0.268373,-0.152356,-0.211326,-0.303088,1,1
85,3,-0.790292,0.204773,-0.362808,-0.295463,-0.274610,-0.178932,-0.351077,1,1
87,3,-0.708797,0.114010,-0.268050,-0.270286,-0.224562,-0.234959,-0.285741,1,1
80,3,-0.713546,0.105325,-0.269950,-0.258102,-0.192845,-0.246442,-0.218305,1,1
99,3,-0.711584,0.201515,-0.394620,-0.310258,-0.325681,-0.313340,-0.307878,1,1
109,3,-0.830300,0.192425,-0.302111,-0.310463,-0.241715,-0.200359,-0.179093,1,1
116,3,-0.793467,0.158547,-0.322586,-0.265676,-0.231954,-0.393717,-0.310375,1,1
89,3,-0.820538,0.237684,-0.372827,-0.275718,-0.264916,-0.263862,-0.278209,1,1
103,3,-0.821638,0.294322,-0.289235,-0.280910,-0.219925,-0.269376,-0.345436,1,1
84,3,-0.789899,0.221989,-0.312789,-0.293457,-0.185380,-0.294492,-0.263177,1,1
119,3,-0.801608,0.146570,-0.274899,-0.310630,-0.362556,-0.263494,-0.324046,1,1
107,3,-0.881550,0.106095,-0.229303,-0.238205,-0.327940,-0.247315,-0.281369,1,1
90,3,-0.668845,0.162759,-0.267622,-0.314139,-0.216159,-0.312241,-0.277674,1,1
86,3,-0.716838,0.174133,-0.317333,-0.282294,-0.313860,-0.211491,-0.265656,1,1
118,3,-0.799661,0.061165,-0.253237,-0.256604,-0.307282,-0.303500,-0.246823,1,1
82,3,-0.850116,0.198563,-0.356174,-0.317772,-0.226792,-0.288238,-0.333758,1,1
111,3,-0.782187,0.237261,-0.324765,-0.327707,-0.304369,-0.331206,-0.309146,1,1
83,3,-0.822312,0.171585,-0.342726,-0.284814,-0.218772,-0.230397,-0.285549,1,1
95,3,-0.828259,0.276939,-0.229130,-0.254107,-0.227651,-0.347225,-0.216666,1,1
113,3,-0.848514,0.105302,-0.301106,-0.217610,-0.217661,-0.310822,-0.341446,1,1
93,3,-0.807129,0.225831,-0.293026,-0.194163,-0.307045,-0.258185,-0.240026,1,1
81,3,-0.724221,0.195127,-0.304537,-0.271852,-0.283527,-0.220123,-0.166970,1,1
91,3,-0.888223,0.176419,-0.324420,-0.229767,-0.255192,-0.345742,-0.251998,1,1
100,3,-0.921636,0.229016,-0.300546,-0.290747,-0.247165,-0.223096,-0.320775,1,1
115,3,-0.764062,0.244096,-0.314312,-0.277561,-0.297817,-0.261852,-0.311321,1,1
114,3,-0.838658,0.159973,-0.343164,-0.313874,-0.284073,-0.272015,-0.324514,1,1
94,3,-0.863262,0.136675,-0.306127,-0.242958,-0.291721,-0.330710,-0.280813,1,1
96,3,-0.837809,0.201693,-0.283760,-0.248650,-0.243507,-0.263227,-0.295755,1,1
104,3,-0.735875,0.091875,-0.349549,-0.210438,-0.091080,-0.281247,-0.239853,1,1
105,3,-0.748808,0.238941,-0.320546,-0.264014,-0.269942,-0.316342,-0.247221,1,1
97,3,-0.799516,0.189090,-0.324035,-0.231105,-0.240853,-0.339729,-0.232190,1,1
108,3,-0.792776,0.258238,-0.253501,-0.307758,-0.242600,-0.367095,-0.232303,1,1
88,3,-0.901548,0.188856,-0.277826,-0.287786,-0.313224,-0.266968,-0.308726,1,1
98,3,-0.807073,0.251340,-0.298718,-0.238501,-0.304251,-0.287652,-0.358508,1,1
142,4,-0.784552,0.151129,-0.368379,-0.263160,-0.230739,-0.311286,-0.268695,1,1
145,4,-0.691146,0.211345,-0.282353,-0.197699,-0.283379,-0.262750,-0.255904,1,1
132,4,-0.804886,0.153203,-0.244541,-0.293656,-0.243945,-0.205870,-0.258031,1,1
156,4,-0.814724,0.255137,-0.319337,-0.293155,-0.236232,-0.231295,-0.299552,1,1
152,4,-0.811185,0.140244,-0.343503,-0.223528,-0.394491,-0.303683,-0.324707,1,1
157,4,-0.865442,0.141787,-0.337470,-0.330499,-0.167343,-0.337495,-0.254170,1,1
139,4,-0.692173,0.216897,-0.282501,-0.335274,-0.238589,-0.306408,-0.322450,1,1
131,4,-0.755770,0.171271,-0.332520,-0.196680,-0.295006,-0.263313,-0.314870,1,1
150,4,-0.811000,0.182835,-0.260476,-0.243194,-0.287038,-0.301011,-0.392461,1,1
133,4,-0.765151,0.114795,-0.312386,-0.382480,-0.212734,-0.313199,-0.217051,1,1
125,4,-0.826465,0.209281,-0.233874,-0.285262,-0.182810,-0.299473,-0.268860,1,1
128,4,-0.776674,0.253492,-0.265474,-0.379104,-0.209483,-0.328387,-0.317961,1,1
135,4,-0.746575,0.207560,-0.272075,-0.220381,-0.255371,-0.247251,-0.418141,1,1
129,4,-0.806019,0.162385,-0.220086,-0.268132,-0.231615,-0.257319,-0.318142,1,1
148,4,-0.690461,0.140994,-0.206789,-0.228235,-0.248277,-0.172227,-0.309624,1,1
137,4,-0.742837,0.258946,-0.286151,-0.250038,-0.263715,-0.186215,-0.301041,1,1
155,4,-0.879247,0.096105,-0.204292,-0.247457,-0.231474,-0.264526,-0.338934,1,1
143,4,-0.777460,0.185060,-0.364522,-0.338738,-0.268923,-0.330051,-0.417473,1,1
144,4,-0.716477,0.113923,-0.300076,-0.300326,-0.285996,-0.322976,-0.236905,1,1
151,4,-0.763781,0.119728,-0.298766,-0.258661,-0.262317,-0.295576,-0.261333,1,1
136,4,-0.760065,0.211590,-0.301252,-0.253704,-0.170864,-0.260760,-0.316153,1,1
130,4,-0.716588,0.219408,-0.413123,-0.236048,-0.216756,-0.292674,-0.316008,1,1
153,4,-0.765788,0.118262,-0.373882,-0.306861,-0.279359,-0.375417,-0.356567,1,1
122,4,-0.805782,0.127721,-0.287138,-0.301168,-0.303650,-0.298210,-0.307986,1,1
124,4,-0.795794,0.281371,-0.261624,-0.156881,-0.182601,-0.317723,-0.344945,1,1
138,4,-0.742526,0.149144,-0.297109,-0.317399,-0.192189,-0.303956,-0.366690,1,1
154,4,-0.777960,0.088480,-0.283256,-0.319455,-0.374819,-0.252520,-0.283328,1,1
121,4,-0.714589,0.193585,-0.287897,-0.233996,-0.226688,-0.316339,-0.321314,1,1
120,4,-0.881570,0.290530,-0.269620,-0.218112,-0.342081,-0.235887,-0.276391,1,1
147,4,-0.762039,0.218301,-0.243733,-0.259795,-0.256713,-0.347527,-0.195169,1,1
126,4,-0.748682,0.152963,-0.234059,-0.358220,-0.172735,-0.372385,-0.309375,1,1
159,4,-0.756473,0.261710,-0.348557,-0.346110,-0.244293,-0.291986,-0.274317,1,1
127,4,-0.677062,0.204733,-0.261099,-0.194792,-0.254556,-0.270684,-0.337610,1,1
134,4,-0.758466,0.152117,-0.305381,-0.281281,-0.281937,-0.323584,-0.282627,1,1
146,4,-0.711659,0.098015,-0.334487,-0.180686,-0.291531,-0.226453,-0.316544,1,1
158,4,-0.880879,0.211077,-0.308018,-0.265415,-0.277800,-0.218003,-0.266858,1,1
140,4,-0.709044,0.175698,-0.322256,-0.241792,-0.313819,-0.317139,-0.332912,1,1
149,4,-0.844327,0.244710,-0.281407,-0.302094,-0.318502,-0.307325,-0.347700,1,1
123,4,-0.762227,0.213545,-0.249792,-0.253254,-0.235365,-0.190490,-0.325833,1,1
141,4,-0.769566,0.191298,-0.313712,-0.407179,-0.290374,-0.260356,-0.238608,1,1
172,5,-0.809897,0.233814,-0.298106,-0.296984,-0.212733,-0.321243,-0.266036,1,1
166,5,-0.737408,0.141981,-0.259916,-0.297034,-0.228905,-0.268422,-0.312129,1,1
165,5,-0.888235,0.219737,-0.331563,-0.212227,-0.222377,-0.166995,-0.248786,1,1
199,5,-0.733996,0.179903,-0.229202,-0.368437,-0.182035,-0.252633,-0.269295,1,1
185,5,-0.760372,0.264048,-0.321017,-0.193235,-0.250622,-0.289330,-0.277692,1,1
177,5,-0.743701,0.190621,-0.317935,-0.203627,-0.302646,-0.283686,-0.235670,1,1
169,5,-0.740047,0.206392,-0.267693,-0.261910,-0.261384,-0.277978,-0.289571,1,1
191,5,-0.789575,0.113367,-0.256145,-0.224634,-0.220717,-0.281739,-0.254063,1,1
163,5,-0.708745,0.161303,-0.284199,-0.248575,-0.230740,-0.314370,-0.239954,1,1
182,5,-0.778799,0.229618,-0.305334,-0.313196,-0.281620,-0.252846,-0.208590,1,1
178,5,-0.790803,0.180137,-0.248157,-0.308252,-0.231948,-0.166644,-0.232294,1,1
192,5,-0.737839,0.161636,-0.292559,-0.336969,-0.255841,-0.303514,-0.370254,1,1
176,5,-0.836023,0.195771,-0.315120,-0.238058,-0.247296,-0.164809,-0.280680,1,1
198,5,-0.769143,0.133641,-0.362426,-0.347337,-0.286499,-0.308606,-0.369941,1,1
171,5,-0.734893,0.185389,-0.345738,-0.247052,-0.214253,-0.283128,-0.250027,1,1
174,5,-0.708714,0.210387,-0.293553,-0.255398,-0.309675,-0.193077,-0.291962,1,1
193,5,-0.747000,0.207303,-0.368739,-0.184982,-0.299254,-0.302399,-0.241756,1,1
164,5,-0.747107,0.272963,-0.269898,-0.223458,-0.282712,-0.272651,-0.398642,1,1
173,5,-0.720881,0.282341,-0.337037,-0.270527,-0.165718,-0.282111,-0.280538,1,1
160,5,-0.848511,0.139305,-0.267892,-0.247045,-0.196678,-0.304511,-0.303286,1,1
183,5,-0.880501,0.237131,-0.371347,-0.257320,-0.231536,-0.243496,-0.330894,1,1
186,5,-0.757027,0.107317,-0.327838,-0.287949,-0.281874,-0.312534,-0.317103,1,1
187,5,-0.775976,0.124607,-0.282932,-0.291317,-0.270003,-0.358079,-0.234779,1,1
162,5,-0.763902,0.119313,-0.324538,-0.226049,-0.231522,-0.244728,-0.441946,1,1
170,5,-0.707637,0.212432,-0.399900,-0.242692,-0.242661,-0.348988,-0.303706,1,1
189,5,-0.751224,0.213849,-0.366960,-0.288666,-0.166609,-0.349533,-0.356550,1,1
195,5,-0.783704,0.165251,-0.299002,-0.310761,-0.324988,-0.262384,-0.284723,1,1
161,5,-0.754851,0.274324,-0.267948,-0.275269,-0.210327,-0.234927,-0.207717,1,1
190,5,-0.765345,0.115116,-0.348723,-0.385414,-0.254839,-0.303581,-0.331337,1,1
188,5,-0.705230,0.168918,-0.298140,-0.234671,-0.284867,-0.319615,-0.320250,1,1
184,5,-0.820895,0.237788,-0.238504,-0.216875,-0.263206,-0.346937,-0.275215,1,1
167,5,-0.710009,0.205055,-0.321748,-0.315478,-0.209036,-0.271211,-0.211658,1,1
180,5,-0.710779,0.132470,-0.360959,-0.280892,-0.313755,-0.189400,-0.237874,1,1
175,5,-0.849148,0.249291,-0.263353,-0.304794,-0.292672,-0.210077,-0.229805,1,1
194,5,-0.805711,0.202760,-0.326640,-0.242578,-0.275286,-0.253488,-0.333027,1,1
196,5,-0.698743,0.159764,-0.230201,-0.255815,-0.279262,-0.304496,-0.172972,1,1
197,5,-0.706705,0.145224,-0.327077,-0.231338,-0.289549,-0.240684,-0.346575,1,1
179,5,-0.804973,0.184605,-0.278896,-0.253224,-0.213227,-0.255849,-0.255293,1,1
181,5,-0.722264,0.190990,-0.302828,-0.229208,-0.302862,-0.322189,-0.276434,1,1
168,5,-0.766657,0.180172,-0.344160,-0.262877,-0.303724,-0.374014,-0.242747,1,1
230,6,-0.673617,0.220650,-0.278084,-0.306514,-0.257738,-0.274982,-0.331871,1,1
219,6,-0.739058,0.188350,-0.298991,-0.242676,-0.274216,-0.227384,-0.270299,1,1
239,6,-0.778652,0.151080,-0.294941,-0.277559,-0.221966,-0.294585,-0.278942,1,1
211,6,-0.785961,0.186546,-0.223457,-0.217312,-0.231801,-0.286353,-0.285187,1,1
205,6,-0.686024,0.211676,-0.234806,-0.205954,-0.165492,-0.290097,-0.318748,1,1
222,6,-0.795579,0.272222,-0.357861,-0.343744,-0.303788,-0.397620,-0.330107,1,1
233,6,-0.762436,0.177110,-0.307057,-0.219128,-0.269441,-0.296494,-0.260338,1,1
213,6,-0.804054,0.153817,-0.253568,-0.272370,-0.167787,-0.313746,-0.348586,1,1
200,6,-0.875112,0.255286,-0.259638,-0.288595,-0.261158,-0.230061,-0.285125,1,1
231,6,-0.754984,0.168174,-0.321851,-0.271100,-0.262676,-0.218127,-0.307047,1,1
201,6,-0.743708,0.205832,-0.297164,-0.203224,-0.138155,-0.280503,-0.360858,1,1
235,6,-0.846095,0.208235,-0.216446,-0.287784,-0.378393,-0.202766,-0.242550,1,1
221,6,-0.742622,0.166548,-0.315961,-0.286183,-0.210517,-0.237701,-0.415341,1,1
216,6,-0.807404,0.162610,-0.371841,-0.243417,-0.264854,-0.267547,-0.238641,1,1
212,6,-0.842647,0.279538,-0.312563,-0.295848,-0.187178,-0.233359,-0.311722,1,1
225,6,-0.736211,0.143744,-0.194676,-0.206099,-0.188501,-0.361934,-0.264349,1,1
224,6,-0.682309,0.168171,-0.173516,-0.330468,-0.286489,-0.222770,-0.271240,1,1
234,6,-0.834849,0.207357,-0.250551,-0.321543,-0.236004,-0.319987,-0.317938,1,1
215,6,-0.772931,0.239070,-0.280734,-0.241589,-0.213381,-0.283276,-0.232567,1,1
214,6,-0.740739,0.256868,-0.376581,-0.223934,-0.269636,-0.242392,-0.234578,1,1
238,6,-0.751290,0.182140,-0.354781,-0.165935,-0.291391,-0.249348,-0.212355,1,1
236,6,-0.675729,0.152702,-0.261071,-0.320388,-0.238092,-0.329610,-0.254626,1,1
220,6,-0.791428,0.195039,-0.284514,-0.267102,-0.265204,-0.255331,-0.248084,1,1
232,6,-0.669951,0.254483,-0.304762,-0.230325,-0.174411,-0.272397,-0.333033,1,1
218,6,-0.721584,0.217779,-0.251103,-0.279505,-0.252663,-0.260837,-0.344995,1,1
229,6,-0.692248,0.125550,-0.315936,-0.320219,-0.314450,-0.277877,-0.342335,1,1
203,6,-0.737579,0.183742,-0.185832,-0.240027,-0.184884,-0.273798,-0.251404,1,1
206,6,-0.691222,0.180091,-0.281350,-0.266673,-0.111099,-0.315559,-0.282525,1,1
237,6,-0.707483,0.220088,-0.240159,-0.218174,-0.208886,-0.243321,-0.339706,1,1
202,6,-0.739013,0.209908,-0.369735,-0.309043,-0.220908,-0.208071,-0.249278,1,1
226,6,-0.697892,0.206168,-0.278993,-0.179503,-0.185590,-0.264543,-0.346029,1,1
204,6,-0.771124,0.084484,-0.243060,-0.282826,-0.256249,-0.272835,-0.241487,1,1
210,6,-0.732262,0.186491,-0.221445,-0.279040,-0.183828,-0.218088,-0.310314,1,1
223,6,-0.733088,0.159713,-0.216884,-0.203551,-0.229732,-0.344119,-0.383609,1,1
217,6,-0.780321,0.262954,-0.224932,-0.151645,-0.160649,-0.233944,-0.294636,1,1
209,6,-0.728709,0.217594,-0.311900,-0.292858,-0.225721,-0.255996,-0.255640,1,1
207,6,-0.725643,0.193005,-0.240019,-0.176466,-0.338189,-0.333761,-0.282699,1,1
227,6,-0.771143,0.184240,-0.297575,-0.179008,-0.344582,-0.253842,-0.320630,1,1
228,6,-0.768373,0.214813,-0.321775,-0.237504,-0.318668,-0.294343,-0.271294,1,1
208,6,-0.748121,0.234850,-0.272485,-0.228707,-0.117066,-0.222061,-0.348036,1,1
249,7,-0.761026,0.203929,-0.312340,-0.313775,-0.232666,-0.281061,-0.347041,1,1
250,7,-0.742156,0.176935,-0.274967,-0.237580,-0.155049,-0.194088,-0.285979,1,1
240,7,-0.836608,0.078439,-0.309070,-0.234403,-0.144098,-0.293651,-0.282573,1,1
255,7,-0.696644,0.251655,-0.239771,-0.203065,-0.274905,-0.279232,-0.301354,1,1
273,7,-0.731046,0.248471,-0.342300,-0.319829,-0.149434,-0.400558,-0.244067,1,1
245,7,-0.718244,0.155263,-0.309309,-0.356359,-0.174586,-0.195709,-0.253043,1,1
246,7,-0.730157,0.246701,-0.243795,-0.343569,-0.152010,-0.169585,-0.222942,1,1
244,7,-0.726190,0.252367,-0.242327,-0.316548,-0.192993,-0.205106,-0.219226,1,1
260,7,-0.688211,0.189658,-0.416736,-0.288279,-0.261809,-0.232676,-0.308812,1,1
254,7,-0.639605,0.244043,-0.233503,-0.171001,-0.164182,-0.263023,-0.303168,1,1
276,7,-0.777570,0.173000,-0.368059,-0.305973,-0.270609,-0.261007,-0.362112,1,1
279,7,-0.791569,0.199203,-0.293199,-0.247399,-0.217896,-0.130257,-0.324952,1,1
263,7,-0.800065,0.132736,-0.295694,-0.254480,-0.205217,-0.214237,-0.268606,1,1
253,7,-0.663621,0.305755,-0.309322,-0.271144,-0.203133,-0.348824,-0.185834,1,0
266,7,-0.766484,0.197810,-0.301448,-0.210247,-0.260835,-0.254783,-0.333183,1,1
256,7,-0.820263,0.144460,-0.170236,-0.182374,-0.255455,-0.274298,-0.256533,1,1
265,7,-0.775965,0.148904,-0.273886,-0.379810,-0.161125,-0.264736,-0.301840,1,1
262,7,-0.769539,0.173784,-0.222825,-0.237339,-0.232107,-0.298339,-0.364715,1,1
272,7,-0.664713,0.126763,-0.354724,-0.276231,-0.162966,-0.248645,-0.301178,1,1
269,7,-0.746504,0.147997,-0.209686,-0.298740,-0.251651,-0.293788,-0.356130,1,1
274,7,-0.773768,0.066555,-0.251630,-0.260174,-0.312402,-0.331595,-0.296579,1,1
261,7,-0.709561,0.091826,-0.273683,-0.314265,-0.163435,-0.263549,-0.286399,1,1
259,7,-0.650878,0.169524,-0.273329,-0.220965,-0.234029,-0.275823,-0.243885,1,1
275,7,-0.751446,0.210753,-0.193343,-0.234020,-0.212491,-0.278957,-0.367201,1,1
252,7,-0.754578,0.144638,-0.219716,-0.200802,-0.310319,-0.363899,-0.275241,1,1
248,7,-0.651038,0.227040,-0.279193,-0.197826,-0.204320,-0.186499,-0.315321,1,1
243,7,-0.743395,0.204706,-0.273668,-0.198826,-0.198055,-0.298296,-0.290506,1,1
257,7,-0.716087,0.236848,-0.223922,-0.237841,-0.191756,-0.271935,-0.255118,1,1
267,7,-0.712132,0.252555,-0.221240,-0.298369,-0.280547,-0.294754,-0.274093,1,1
264,7,-0.674966,0.194216,-0.286647,-0.207470,-0.238644,-0.196332,-0.222185,1,1
251,7,-0.775967,0.212728,-0.388709,-0.237877,-0.185860,-0.215935,-0.300869,1,1
277,7,-0.697979,0.182355,-0.289929,-0.174850,-0.199342,-0.293574,-0.325724,1,1
242,7,-0.762434,0.175025,-0.287915,-0.251417,-0.175685,-0.327488,-0.256218,1,1
247,7,-0.788215,0.237916,-0.259343,-0.160030,-0.253008,-0.229590,-0.238512,1,1
278,7,-0.719681,0.225974,-0.281965,-0.306858,-0.167946,-0.102962,-0.188867,1,1
258,7,-0.716871,0.148308,-0.299844,-0.256458,-0.199651,-0.204767,-0.321731,1,1
270,7,-0.727528,0.231109,-0.350662,-0.279053,-0.211878,-0.362738,-0.257449,1,1
271,7,-0.855788,0.205513,-0.266033,-0.325656,-0.246112,-0.283528,-0.366879,1,1
268,7,-0.787637,0.146276,-0.312543,-0.174027,-0.304835,-0.235961,-0.379169,1,1
241,7,-0.798775,0.221784,-0.203506,-0.319924,-0.206220,-0.266085,-0.316824,1,1
306,8,-0.685001,0.150791,-0.236706,-0.298031,-0.187271,-0.282029,-0.311310,1,1
305,8,-0.692035,0.281346,-0.304491,-0.196646,-0.198540,-0.250781,-0.233723,1,1
313,8,-0.741138,0.183373,-0.319422,-0.352857,-0.315428,-0.229850,-0.332541,1,1
297,8,-0.750138,0.205665,-0.310040,-0.309919,-0.235897,-0.236424,-0.287534,1,1
310,8,-0.718195,0.178741,-0.238199,-0.263192,-0.202589,-0.354497,-0.230951,1,1
289,8,-0.606413,0.299564,-0.263764,-0.179977,-0.287161,-0.255563,-0.234097,1,0
300,8,-0.754632,0.153121,-0.292030,-0.163147,-0.186549,-0.284856,-0.267648,1,1
295,8,-0.676152,0.139292,-0.267070,-0.231659,-0.207941,-0.315348,-0.244721,1,1
301,8,-0.727268,0.225821,-0.251334,-0.233648,-0.257902,-0.364448,-0.350246,1,1
319,8,-0.664128,0.097184,-0.301609,-0.283129,-0.193645,-0.271202,-0.311760,1,1
280,8,-0.707490,0.150363,-0.286739,-0.185237,-0.176229,-0.288144,-0.194252,1,1
316,8,-0.737615,0.093147,-0.198567,-0.225955,-0.235596,-0.196848,-0.246846,1,1
291,8,-0.797108,0.189600,-0.338456,-0.301016,-0.186230,-0.317322,-0.237304,1,1
312,8,-0.736907,0.171709,-0.359162,-0.277487,-0.169325,-0.245329,-0.242999,1,1
282,8,-0.737772,0.233338,-0.262231,-0.337114,-0.109440,-0.278016,-0.250671,1,1
288,8,-0.665904,0.237342,-0.233195,-0.206509,-0.194548,-0.231426,-0.355741,1,1
309,8,-0.730060,0.131988,-0.290378,-0.244392,-0.143534,-0.275720,-0.259574,1,1
294,8,-0.696249,0.197732,-0.258392,-0.232712,-0.140296,-0.253029,-0.247634,1,1
307,8,-0.656417,0.194094,-0.292616,-0.242062,-0.202135,-0.357066,-0.272662,1,1
317,8,-0.740436,0.202144,-0.204867,-0.226406,-0.186237,-0.212382,-0.292829,1,1
292,8,-0.708729,0.114285,-0.278338,-0.266562,-0.206613,-0.203646,-0.267631,1,1
283,8,-0.642165,0.151855,-0.264162,-0.217756,-0.274353,-0.198125,-0.245526,1,1
285,8,-0.740470,0.205202,-0.396785,-0.306780,-0.240365,-0.239274,-0.153660,1,1
303,8,-0.651573,0.285728,-0.273608,-0.266163,-0.208807,-0.347613,-0.228832,1,1
281,8,-0.752344,0.229063,-0.299268,-0.259003,-0.177713,-0.236265,-0.235816,1,1
304,8,-0.689484,0.254368,-0.286216,-0.203113,-0.275257,-0.215283,-0.248481,1,1
290,8,-0.775146,0.275363,-0.272097,-0.234894,-0.131268,-0.158885,-0.316941,1,1
286,8,-0.799634,0.185510,-0.274660,-0.213790,-0.271150,-0.257190,-0.158531,1,1
284,8,-0.754923,0.270593,-0.308878,-0.149480,-0.191902,-0.218315,-0.339607,1,1
314,8,-0.752458,0.191757,-0.305026,-0.245809,-0.210685,-0.327170,-0.320148,1,1
299,8,-0.691208,0.172749,-0.237154,-0.336870,-0.286310,-0.226237,-0.212516,1,1
287,8,-0.710375,0.181484,-0.229157,-0.182370,-0.195435,-0.219671,-0.211789,1,1
315,8,-0.719942,0.266784,-0.268532,-0.284162,-0.114949,-0.233759,-0.293138,1,1
298,8,-0.700333,0.181279,-0.261766,-0.226489,-0.267453,-0.153313,-0.208770,1,1
311,8,-0.720409,0.192664,-0.308860,-0.220886,-0.197607,-0.287680,-0.202195,1,1
318,8,-0.830073,0.221264,-0.324878,-0.183875,-0.253945,-0.309329,-0.249770,1,1
293,8,-0.698445,0.213688,-0.246133,-0.243734,-0.139524,-0.339746,-0.247208,1,1
296,8,-0.732270,0.219404,-0.203581,-0.270346,-0.364203,-0.239037,-0.287899,1,1
302,8,-0.813386,0.159219,-0.206006,-0.207771,-0.184115,-0.301136,-0.339590,1,1
308,8,-0.717693,0.112448,-0.253449,-0.238166,-0.201303,-0.288135,-0.350647,1,1
335,9,-0.740753,0.149187,-0.258381,-0.178634,-0.228440,-0.225114,-0.268912,1,1
336,9,-0.734095,0.193414,-0.256352,-0.254552,-0.261859,-0.172310,-0.208926,1,1
345,9,-0.685930,0.294287,-0.267043,-0.267511,-0.189174,-0.254778,-0.261180,1,1
353,9,-0.743829,0.172806,-0.276395,-0.265349,-0.262599,-0.247924,-0.216348,1,1
325,9,-0.657962,0.182337,-0.280677,-0.199757,-0.228887,-0.187020,-0.250144,1,1
324,9,-0.605305,0.194492,-0.291499,-0.205539,-0.235090,-0.245762,-0.243663,1,1
329,9,-0.711497,0.170224,-0.188868,-0.237204,-0.223737,-0.276421,-0.229718,1,1
323,9,-0.655803,0.246740,-0.186279,-0.207238,-0.200311,-0.277862,-0.216269,1,1
330,9,-0.815973,0.205816,-0.238809,-0.191003,-0.248761,-0.216226,-0.294806,1,1
344,9,-0.735857,0.141546,-0.307081,-0.225206,-0.178697,-0.170221,-0.243579,1,1
347,9,-0.751503,0.087924,-0.319974,-0.289145,-0.199740,-0.204689,-0.287612,1,1
334,9,-0.782618,0.173686,-0.203764,-0.331801,-0.269074,-0.249328,-0.232284,1,1
337,9,-0.724218,0.234472,-0.075340,-0.262654,-0.087811,-0.250061,-0.291682,1,1
355,9,-0.630578,0.322130,-0.281771,-0.285394,-0.260895,-0.271508,-0.339601,1,1
350,9,-0.708362,0.205209,-0.308366,-0.111557,-0.225465,-0.274887,-0.177191,1,1
328,9,-0.668285,0.165853,-0.332162,-0.176527,-0.186334,-0.266540,-0.197175,1,1
327,9,-0.677764,0.228359,-0.187338,-0.233534,-0.138102,-0.195546,-0.252373,1,1
340,9,-0.687729,0.210916,-0.298297,-0.288251,-0.277779,-0.261585,-0.308232,1,1
348,9,-0.756551,0.180045,-0.259351,-0.197828,-0.247369,-0.196552,-0.232040,1,1
322,9,-0.742124,0.188367,-0.193462,-0.194016,-0.230000,-0.304276,-0.266738,1,1
339,9,-0.749516,0.232886,-0.205904,-0.222675,-0.246358,-0.200541,-0.280613,1,1
356,9,-0.778120,0.176040,-0.310896,-0.263958,-0.202274,-0.358249,-0.207708,1,1
326,9,-0.637726,0.160864,-0.327464,-0.234044,-0.233650,-0.216343,-0.222282,1,1
358,9,-0.617561,0.140887,-0.215414,-0.266696,-0.218783,-0.276696,-0.299815,1,1
342,9,-0.732885,0.162569,-0.383270,-0.208009,-0.272233,-0.281327,-0.347004,1,1
333,9,-0.706542,0.114102,-0.258670,-0.211949,-0.175252,-0.238687,-0.275786,1,1
354,9,-0.792981,0.087039,-0.291078,-0.169529,-0.265463,-0.225875,-0.295448,1,1
331,9,-0.733466,0.136543,-0.311838,-0.268658,-0.199979,-0.219469,-0.310152,1,1
321,9,-0.701753,0.209830,-0.272113,-0.252679,-0.155057,-0.132412,-0.241209,1,1
343,9,-0.696529,0.220673,-0.273781,-0.202223,-0.180848,-0.264897,-0.263142,1,1
351,9,-0.776296,0.135298,-0.312758,-0.288871,-0.178762,-0.290407,-0.407459,1,1
357,9,-0.714107,0.156873,-0.253631,-0.287233,-0.232927,-0.287828,-0.300633,1,1
332,9,-0.670476,0.153824,-0.243698,-0.293903,-0.285460,-0.278343,-0.227383,1,1
352,9,-0.708926,0.235644,-0.367616,-0.202528,-0.201499,-0.257491,-0.311638,1,1
359,9,-0.782307,0.181156,-0.191811,-0.197141,-0.239056,-0.320530,-0.235840,1,1
320,9,-0.751329,0.174678,-0.168619,-0.302308,-0.154064,-0.197453,-0.282396,1,1
341,9,-0.785991,0.225850,-0.289778,-0.206337,-0.218983,-0.221816,-0.370284,1,1
346,9,-0.772063,0.244663,-0.241737,-0.216444,-0.213710,-0.227059,-0.410409,1,1
338,9,-0.712075,0.139495,-0.233475,-0.219849,-0.312851,-0.269850,-0.281310,1,1
349,9,-0.750354,0.193087,-0.308793,-0.240608,-0.315781,-0.279877,-0.254155,1,1
379,10,-0.700883,0.176428,-0.230568,-0.247462,-0.316174,-0.124985,-0.257430,1,1
374,10,-0.737598,0.245294,-0.249731,-0.192408,-0.085735,-0.152652,-0.263560,1,1
390,10,-0.722019,0.237060,-0.225654,-0.273932,-0.275188,-0.336524,-0.307105,1,1
397,10,-0.628012,0.252739,-0.211546,-0.202546,-0.298864,-0.320409,-0.245318,1,1
383,10,-0.706833,0.192931,-0.257158,-0.299550,-0.262051,-0.243833,-0.209318,1,1
375,10,-0.804136,0.259765,-0.236072,-0.202037,-0.153355,-0.222483,-0.244051,1,1
377,10,-0.720464,0.171888,-0.205093,-0.299088,-0.323257,-0.274858,-0.232471,1,1
365,10,-0.687849,0.183692,-0.241777,-0.245359,-0.216816,-0.152389,-0.262925,1,1
372,10,-0.698152,0.156664,-0.250192,-0.162548,-0.190762,-0.255775,-0.224369,1,1
387,10,-0.726223,0.169249,-0.359341,-0.203563,-0.232127,-0.154612,-0.188038,1,1
366,10,-0.658032,0.215947,-0.221854,-0.173067,-0.188676,-0.251182,-0.215209,1,1
386,10,-0.674391,0.184940,-0.304452,-0.243515,-0.210840,-0.239010,-0.242810,1,1
388,10,-0.761415,0.154800,-0.308867,-0.232031,-0.203511,-0.268071,-0.355840,1,1
385,10,-0.721347,0.188376,-0.185175,-0.234901,-0.209575,-0.218018,-0.182668,1,1
370,10,-0.649837,0.190243,-0.214972,-0.267793,-0.188009,-0.200904,-0.317331,1,1
378,10,-0.731144,0.219252,-0.273414,-0.280460,-0.240204,-0.236649,-0.203058,1,1
392,10,-0.644689,0.113672,-0.275494,-0.263148,-0.185182,-0.316793,-0.263925,1,1
363,10,-0.703561,0.150278,-0.253793,-0.164601,-0.274936,-0.291710,-0.253021,1,1
376,10,-0.666162,0.222726,-0.242495,-0.322087,-0.218160,-0.243049,-0.224390,1,1
394,10,-0.684014,0.152196,-0.260259,-0.229482,-0.158922,-0.212182,-0.217632,1,1
362,10,-0.759732,0.205196,-0.163940,-0.161026,-0.265255,-0.193660,-0.308891,1,1
364,10,-0.749906,0.189088,-0.209250,-0.211612,-0.209480,-0.189045,-0.298744,1,1
361,10,-0.697421,0.165705,-0.282766,-0.206743,-0.128739,-0.197764,-0.330243,1,1
360,10,-0.747808,0.253598,-0.274825,-0.272779,-0.181104,-0.231051,-0.237279,1,1
369,10,-0.698888,0.204944,-0.166726,-0.200628,-0.234643,-0.201556,-0.329096,1,1
380,10,-0.653543,0.166957,-0.219979,-0.228151,-0.213254,-0.258805,-0.246210,1,1
396,10,-0.775510,0.150650,-0.254142,-0.241444,-0.191784,-0.237424,-0.242693,1,1
391,10,-0.740475,0.181020,-0.224917,-0.198770,-0.080679,-0.337875,-0.269597,1,1
367,10,-0.681592,0.238203,-0.355438,-0.243484,-0.247465,-0.250424,-0.185338,1,1
368,10,-0.515228,0.198138,-0.134681,-0.218353,-0.218723,-0.261073,-0.255531,1,0
381,10,-0.715923,0.154511,-0.293507,-0.248254,-0.106683,-0.355745,-0.226236,1,1
389,10,-0.721325,0.167138,-0.284103,-0.224607,-0.181974,-0.130264,-0.271920,1,1
371,10,-0.601150,0.168033,-0.254829,-0.254739,-0.185529,-0.212417,-0.225226,1,1
398,10,-0.728578,0.131730,-0.327285,-0.270128,-0.273532,-0.187122,-0.298663,1,1
382,10,-0.705592,0.227358,-0.186791,-0.233180,-0.214768,-0.250963,-0.255442,1,1
384,10,-0.651420,0.195093,-0.184304,-0.193290,-0.192922,-0.223556,-0.250084,1,1
373,10,-0.728061,0.131045,-0.112748,-0.233986,-0.190477,-0.247727,-0.233437,1,1
393,10,-0.650176,0.110357,-0.212652,-0.164972,-0.259227,-0.136092,-0.317755,1,1
399,10,-0.693100,0.220309,-0.272066,-0.343905,-0.100021,-0.248314,-0.198202,1,1
395,10,-0.712656,0.163406,-0.235097,-0.261538,-0.233424,-0.289105,-0.197069,1,1
424,11,-0.601710,0.166262,-0.187450,-0.189363,-0.285693,-0.219893,-0.230537,1,1
420,11,-0.707083,0.112376,-0.273225,-0.327137,-0.147298,-0.236696,-0.200843,1,1
408,11,-0.671611,0.254777,-0.247273,-0.173602,-0.236491,-0.159488,-0.221194,1,1
426,11,-0.641181,0.231504,-0.274252,-0.173704,-0.172480,-0.222854,-0.228989,1,1
404,11,-0.640369,0.176066,-0.256224,-0.236612,-0.166370,-0.233466,-0.232022,1,1
419,11,-0.685311,0.091507,-0.269724,-0.284879,-0.234311,-0.228129,-0.289095,1,1
429,11,-0.709797,0.117638,-0.231342,-0.300006,-0.212050,-0.179637,-0.225845,1,1
416,11,-0.669036,0.150913,-0.236579,-0.213842,-0.164075,-0.265399,-0.338550,1,1
412,11,-0.680192,0.236287,-0.180100,-0.179040,-0.176165,-0.247201,-0.241252,1,1
439,11,-0.713770,0.323718,-0.245050,-0.176282,-0.199172,-0.311724,-0.263625,1,1
422,11,-0.768544,0.202354,-0.277136,-0.200060,-0.207805,-0.201670,-0.165589,1,1
436,11,-0.715054,0.214989,-0.288698,-0.239061,-0.224787,-0.154410,-0.185728,1,1
421,11,-0.723468,0.240502,-0.196327,-0.214829,-0.280984,-0.197751,-0.178507,1,1
411,11,-0.627809,0.198592,-0.257524,-0.298508,-0.240951,-0.159864,-0.245555,1,1
427,11,-0.661374,0.225661,-0.270862,-0.290788,-0.264586,-0.340218,-0.248803,1,1
405,11,-0.653825,0.175638,-0.192927,-0.203958,-0.266964,-0.266392,-0.224008,1,1
432,11,-0.729868,0.201009,-0.212241,-0.117660,-0.195420,-0.216536,-0.276072,1,1
406,11,-0.666931,0.271678,-0.273650,-0.148357,-0.144120,-0.280089,-0.317632,1,1
400,11,-0.746799,0.193078,-0.275032,-0.228681,-0.225334,-0.087383,-0.293168,1,1
407,11,-0.700220,0.242286,-0.242033,-0.291340,-0.189593,-0.195215,-0.224967,1,1
417,11,-0.736510,0.174255,-0.260757,-0.186060,-0.190658,-0.143881,-0.301967,1,1
409,11,-0.621671,0.282401,-0.198245,-0.230231,-0.187267,-0.256315,-0.220913,1,1
437,11,-0.707883,0.076241,-0.290547,-0.199278,-0.141340,-0.188640,-0.242441,1,1
438,11,-0.671166,0.186337,-0.199496,-0.255626,-0.183922,-0.277704,-0.260453,1,1
415,11,-0.659585,0.105326,-0.170331,-0.216929,-0.155476,-0.188725,-0.241165,1,1
433,11,-0.688979,0.176270,-0.160562,-0.245663,-0.172018,-0.216463,-0.296951,1,1
428,11,-0.703047,0.248516,-0.297495,-0.236367,-0.120459,-0.286734,-0.224963,1,1
434,11,-0.714248,0.121067,-0.293217,-0.265895,-0.157534,-0.177766,-0.204101,1,1
435,11,-0.738637,0.256755,-0.282768,-0.190430,-0.208728,-0.251234,-0.315570,1,1
413,11,-0.718462,0.215933,-0.295369,-0.237549,-0.147602,-0.239370,-0.159586,1,1
410,11,-0.818499,0.155051,-0.215838,-0.165211,-0.217751,-0.254324,-0.209843,1,1
402,11,-0.718043,0.174658,-0.217300,-0.193240,-0.165062,-0.209024,-0.305488,1,1
403,11,-0.809929,0.208360,-0.205553,-0.215552,-0.106680,-0.225526,-0.186082,1,1
401,11,-0.733457,0.199019,-0.180977,-0.267837,-0.224329,-0.274038,-0.242005,1,1
418,11,-0.657643,0.198072,-0.193040,-0.224905,-0.239782,-0.184455,-0.216505,1,1
414,11,-0.772444,0.172674,-0.217193,-0.286574,-0.123681,-0.138807,-0.295684,1,1
430,11,-0.608613,0.153396,-0.196520,-0.282858,-0.199891,-0.162094,-0.241115,1,1
431,11,-0.622280,0.095686,-0.293174,-0.273618,-0.172173,-0.287133,-0.304571,1,1
423,11,-0.679445,0.141386,-0.202324,-0.158506,-0.166713,-0.278353,-0.293244,1,1
425,11,-0.710021,0.147574,-0.187421,-0.288080,-0.138799,-0.247721,-0.198451,1,1
476,12,-0.659389,0.149749,-0.296467,-0.289793,-0.188881,-0.265151,-0.100974,1,1
449,12,-0.676233,0.200039,-0.295812,-0.203573,-0.212127,-0.222544,-0.248868,1,1
442,12,-0.650963,0.257034,-0.312696,-0.270035,-0.075608,-0.125549,-0.235648,1,1
470,12,-0.721683,0.168561,-0.241127,-0.263744,-0.180221,-0.252516,-0.302849,1,1
446,12,-0.603887,0.179387,-0.230454,-0.231807,-0.138888,-0.223906,-0.232950,1,1
461,12,-0.758662,0.140229,-0.274366,-0.183295,-0.085209,-0.247228,-0.283148,1,1
452,12,-0.643174,0.161626,-0.220699,-0.178949,-0.117274,-0.202098,-0.160171,1,1
441,12,-0.655995,0.125886,-0.216131,-0.219354,-0.168145,-0.229085,-0.184372,1,1
445,12,-0.694522,0.196742,-0.201530,-0.193095,-0.141857,-0.287770,-0.201862,1,1
474,12,-0.655292,0.282470,-0.246636,-0.253537,-0.216457,-0.241154,-0.156448,1,1
444,12,-0.660139,0.194268,-0.236458,-0.158309,-0.225603,-0.219707,-0.107202,1,1
460,12,-0.636999,0.126856,-0.298643,-0.174300,-0.083210,-0.277555,-0.229485,1,1
475,12,-0.659871,0.129141,-0.218574,-0.182602,-0.084155,-0.260281,-0.243535,1,1
457,12,-0.699126,0.257189,-0.254233,-0.307316,-0.171919,-0.172400,-0.299429,1,1
464,12,-0.719961,0.204807,-0.220284,-0.214522,-0.149423,-0.154548,-0.305590,1,1
453,12,-0.773286,0.195209,-0.182879,-0.294807,-0.123634,-0.198856,-0.170915,1,1
477,12,-0.618257,0.158386,-0.232462,-0.199830,-0.168512,-0.252675,-0.153695,1,1
455,12,-0.673190,0.162083,-0.219977,-0.158382,-0.136451,-0.149369,-0.298805,1,1
458,12,-0.641873,0.200545,-0.224579,-0.218195,-0.238294,-0.228251,-0.278164,1,1
472,12,-0.617602,0.194267,-0.212845,-0.208189,-0.280375,-0.223646,-0.290823,1,1
447,12,-0.697281,0.278600,-0.121997,-0.185373,-0.188636,-0.184661,-0.183343,1,1
463,12,-0.589723,0.189649,-0.332254,-0.247343,-0.236848,-0.151532,-0.173334,1,1
468,12,-0.730188,0.160657,-0.288146,-0.312359,-0.202068,-0.156695,-0.289486,1,1
443,12,-0.669615,0.154927,-0.269684,-0.242921,-0.201624,-0.236724,-0.190927,1,1
466,12,-0.680832,0.203070,-0.289485,-0.207162,-0.153929,-0.186794,-0.242482,1,1
459,12,-0.651277,0.174027,-0.255920,-0.196249,-0.105589,-0.217998,-0.282510,1,1
478,12,-0.639902,0.157678,-0.173276,-0.251224,-0.194355,-0.166449,-0.214896,1,1
471,12,-0.659572,0.199694,-0.262709,-0.184694,-0.253503,-0.229440,-0.247851,1,1
456,12,-0.714438,0.292735,-0.106797,-0.276504,-0.125247,-0.217031,-0.301371,1,1
473,12,-0.583042,0.171424,-0.330118,-0.218623,-0.182344,-0.276323,-0.206454,1,1
479,12,-0.707636,0.125246,-0.338755,-0.251968,-0.251661,-0.291186,-0.258507,1,1
469,12,-0.629063,0.139697,-0.215095,-0.229560,-0.201559,-0.228362,-0.281188,1,1
451,12,-0.680497,0.226946,-0.254977,-0.255636,-0.213004,-0.279042,-0.188435,1,1
462,12,-0.629958,0.141434,-0.251546,-0.196421,-0.168251,-0.175565,-0.234800,1,1
450,12,-0.651071,0.225365,-0.270568,-0.173487,-0.140243,-0.173795,-0.194372,1,1
440,12,-0.668346,0.116437,-0.159822,-0.185395,-0.240433,-0.196699,-0.253018,1,1
448,12,-0.697182,0.196425,-0.214393,-0.261671,-0.079613,-0.199211,-0.283165,1,1
465,12,-0.665905,0.091157,-0.199517,-0.140920,-0.142354,-0.134676,-0.301316,1,1
467,12,-0.708774,0.207022,-0.231744,-0.240828,-0.166147,-0.264799,-0.208432,1,1
454,12,-0.749175,0.255285,-0.233115,-0.212908,-0.107176,-0.229693,-0.263847,1,1
512,13,-0.689772,0.127010,-0.301453,-0.249343,-0.137030,-0.195307,-0.180013,1,1
491,13,-0.592624,0.210245,-0.231062,-0.334342,-0.182638,-0.225355,-0.206504,1,1
516,13,-0.612291,0.153732,-0.216324,-0.114598,-0.186813,-0.241413,-0.196020,1,1
506,13,-0.608333,0.232443,-0.216512,-0.243572,-0.272993,-0.159591,-0.250055,1,1
494,13,-0.625635,0.198185,-0.342517,-0.210168,-0.116843,-0.234092,-0.183878,1,1
505,13,-0.701529,0.259896,-0.204616,-0.267435,-0.215137,-0.210166,-0.172349,1,1
511,13,-0.699318,0.160649,-0.181202,-0.157397,-0.241805,-0.128979,-0.287929,1,1
496,13,-0.653697,0.221609,-0.167061,-0.142342,-0.196710,-0.141068,-0.299679,1,1
499,13,-0.743975,0.220455,-0.196771,-0.210308,-0.140828,-0.193480,-0.206582,1,1
514,13,-0.637323,0.152039,-0.233288,-0.136130,-0.151365,-0.221727,-0.233083,1,1
490,13,-0.704485,0.095280,-0.235339,-0.114982,-0.117131,-0.202901,-0.249593,1,1
482,13,-0.674730,0.207389,-0.170528,-0.219759,-0.185574,-0.219728,-0.272174,1,1
487,13,-0.651117,0.144576,-0.313323,-0.245155,-0.088301,-0.235901,-0.248276,1,1
510,13,-0.611257,0.098172,-0.209144,-0.129235,-0.146144,-0.210893,-0.239370,1,1
495,13,-0.664337,0.214544,-0.363256,-0.171864,-0.097346,-0.228148,-0.287597,1,1
504,13,-0.636575,0.224559,-0.275718,-0.243420,-0.190389,-0.194481,-0.264217,1,1
483,13,-0.715622,0.182394,-0.182619,-0.170062,-0.175334,-0.200499,-0.131015,1,1
503,13,-0.662904,0.260590,-0.222349,-0.208121,-0.197369,-0.231428,-0.316369,1,1
507,13,-0.650976,0.142143,-0.173580,-0.191477,-0.191088,-0.185573,-0.144083,1,1
500,13,-0.580095,0.220809,-0.148117,-0.215683,-0.227101,-0.209781,-0.273766,1,1
501,13,-0.619995,0.170834,-0.259568,-0.180499,-0.107825,-0.252961,-0.211319,1,1
502,13,-0.597673,0.198223,-0.265216,-0.264098,-0.179653,-0.179839,-0.186787,1,1
519,13,-0.613558,0.227458,-0.220614,-0.219821,-0.186818,-0.183551,-0.210421,1,1
513,13,-0.643501,0.196225,-0.181395,-0.235069,-0.185850,-0.269172,-0.189858,1,1
509,13,-0.548809,0.231762,-0.256185,-0.215424,-0.232861,-0.136884,-0.252782,1,1
498,13,-0.681678,0.171403,-0.253502,-0.124440,-0.216464,-0.172553,-0.338808,1,1
488,13,-0.561576,0.279675,-0.197617,-0.157907,-0.099954,-0.187810,-0.234566,1,1
485,13,-0.598053,0.288786,-0.158412,-0.208949,-0.101102,-0.207878,-0.213341,1,1
497,13,-0.622506,0.193810,-0.235394,-0.190202,-0.142402,-0.268712,-0.204568,1,1
518,13,-0.600528,0.164999,-0.232175,-0.168446,-0.142489,-0.188481,-0.200954,1,1
492,13,-0.603128,0.219874,-0.312458,-0.148428,-0.217167,-0.244537,-0.230321,1,1
486,13,-0.677290,0.260601,-0.236340,-0.299683,-0.246851,-0.288393,-0.306323,1,1
517,13,-0.530123,0.204598,-0.228112,-0.228701,-0.154582,-0.249043,-0.173238,1,1
484,13,-0.679451,0.179531,-0.323596,-0.188951,-0.194613,-0.169207,-0.282858,1,1
508,13,-0.608806,0.197609,-0.207659,-0.116955,-0.282638,-0.210980,-0.223740,1,1
515,13,-0.634509,0.202081,-0.176183,-0.306921,-0.132736,-0.239986,-0.178456,1,1
489,13,-0.588973,0.160932,-0.194224,-0.234793,-0.105122,-0.153719,-0.257225,1,1
481,13,-0.648698,0.171383,-0.255175,-0.202571,-0.167983,-0.203648,-0.168657,1,1
493,13,-0.691983,0.175292,-0.262901,-0.150798,-0.111638,-0.165369,-0.204604,1,1
480,13,-0.714112,0.275797,-0.218244,-0.213670,-0.081573,-0.250869,-0.209717,1,1
554,14,-0.585390,0.215657,-0.239995,-0.233576,-0.112210,-0.201078,-0.170806,1,1
549,14,-0.601052,0.169520,-0.275750,-0.281713,-0.126088,-0.190397,-0.291137,1,1
555,14,-0.606745,0.280969,-0.243716,-0.196449,-0.232740,-0.194095,-0.262106,1,1
543,14,-0.584106,0.122842,-0.236906,-0.184350,-0.183388,-0.205645,-0.160638,1,1
553,14,-0.654015,0.224547,-0.221960,-0.169663,-0.196361,-0.139295,-0.198702,1,1
520,14,-0.602435,0.117657,-0.251410,-0.268736,-0.184423,-0.214308,-0.150434,1,1
548,14,-0.681674,0.245649,-0.212007,-0.222384,-0.248769,-0.310649,-0.305731,1,1
541,14,-0.638610,0.123812,-0.199493,-0.181176,-0.196442,-0.209238,-0.185458,1,1
551,14,-0.688691,0.132730,-0.208023,-0.070342,-0.191443,-0.146962,-0.195449,1,1
539,14,-0.714194,0.109965,-0.187884,-0.238814,-0.144255,-0.126236,-0.148604,1,1
523,14,-0.764889,0.191388,-0.284337,-0.199633,-0.096987,-0.136231,-0.323783,1,0
532,14,-0.723694,0.128392,-0.147076,-0.221260,-0.196457,-0.138098,-0.184792,1,1
544,14,-0.613870,0.158614,-0.242531,-0.178327,-0.215113,-0.241357,-0.225733,1,1
535,14,-0.596356,0.131269,-0.148714,-0.170118,-0.096332,-0.157198,-0.259683,1,1
528,14,-0.638170,0.143477,-0.195396,-0.188946,-0.139288,-0.237032,-0.232833,1,1
545,14,-0.585763,0.205693,-0.217209,-0.143929,-0.154447,-0.242889,-0.335172,1,1
558,14,-0.727003,0.204998,-0.338401,-0.105007,-0.178280,-0.104765,-0.205977,1,1
531,14,-0.560062,0.150492,-0.319498,-0.172518,-0.164156,-0.127073,-0.031285,1,1
533,14,-0.663003,0.159554,-0.176487,-0.203324,-0.224556,-0.209231,-0.212665,1,1
559,14,-0.629595,0.153591,-0.134019,-0.235055,-0.191633,-0.264716,-0.270467,1,1
556,14,-0.595768,0.143469,-0.135085,-0.210583,-0.126110,-0.132144,-0.235957,1,1
550,14,-0.547838,0.132658,-0.203056,-0.302366,-0.169531,-0.144846,-0.322666,1,1
524,14,-0.740615,0.183521,-0.211302,-0.160456,-0.158189,-0.238707,-0.202783,1,1
534,14,-0.608137,0.190221,-0.192943,-0.160647,-0.181363,-0.219734,-0.228963,1,1
538,14,-0.632199,0.205877,-0.261268,-0.104092,-0.112527,-0.223678,-0.233518,1,1
522,14,-0.573006,0.273846,-0.198482,-0.268360,-0.100105,-0.253866,-0.262845,1,1
530,14,-0.623953,0.204752,-0.229733,-0.292829,-0.185493,-0.173054,-0.165131,1,1
521,14,-0.602639,0.138707,-0.230247,-0.190080,-0.158079,-0.292173,-0.204506,1,1
542,14,-0.631704,0.216130,-0.161051,-0.164525,-0.188495,-0.254639,-0.190526,1,1
552,14,-0.726098,0.197472,-0.163867,-0.156668,-0.130022,-0.207917,-0.235821,1,1
536,14,-0.604344,0.265147,-0.264251,-0.116821,-0.205051,-0.135248,-0.188152,1,1
557,14,-0.456624,0.150405,-0.167028,-0.204684,-0.134126,-0.067989,-0.222605,0,1
546,14,-0.633592,0.344795,-0.268680,-0.180840,-0.132639,-0.184345,-0.245295,1,1
529,14,-0.652238,0.140577,-0.240175,-0.197461,-0.165313,-0.214061,-0.248535,1,1
537,14,-0.656052,0.255282,-0.171968,-0.253649,-0.168401,-0.150766,-0.164670,1,1
547,14,-0.692332,0.113545,-0.224130,-0.183586,-0.150938,-0.228838,-0.313513,1,1
526,14,-0.659247,0.234551,-0.165375,-0.164799,-0.161473,-0.260640,-0.332618,1,1
527,14,-0.559315,0.196922,-0.174675,-0.141081,-0.144833,-0.139503,-0.189829,1,1
525,14,-0.485301,0.170198,-0.166338,-0.200367,-0.216506,-0.156058,-0.219668,1,1
540,14,-0.557996,0.205589,-0.215396,-0.225272,-0.164993,-0.090247,-0.270854,1,1
566,15,-0.652002,0.166093,-0.178524,-0.124181,-0.175407,-0.150935,-0.182265,1,1
563,15,-0.651348,0.124641,-0.227788,-0.112307,-0.243251,-0.146771,-0.181911,1,1
591,15,-0.733417,0.161069,-0.233863,-0.202826,-0.133614,-0.218449,-0.129253,1,1
585,15,-0.602308,0.188672,-0.223124,-0.225964,-0.095494,-0.208483,-0.186995,1,1
572,15,-0.521938,0.165006,-0.203562,-0.144335,-0.143348,-0.190868,-0.265249,1,1
588,15,-0.643300,0.217566,-0.251338,-0.200881,-0.175442,-0.298973,-0.256832,1,1
561,15,-0.641204,0.089726,-0.254204,-0.159255,-0.176893,-0.187859,-0.250795,1,1
590,15,-0.705966,0.101337,-0.234491,-0.285282,-0.160507,-0.262094,-0.149331,1,1
571,15,-0.640832,0.119822,-0.231608,-0.251934,-0.218215,-0.237610,-0.207419,1,1
568,15,-0.584720,0.188427,-0.125334,-0.213949,-0.253319,-0.271857,-0.219237,1,1
567,15,-0.603668,0.297740,-0.126093,-0.208366,-0.112373,-0.232240,-0.249040,1,1
574,15,-0.677484,0.219729,-0.257896,-0.160869,-0.121796,-0.186683,-0.261708,1,1
570,15,-0.627292,0.245352,-0.181256,-0.220660,-0.094263,-0.151265,-0.191724,1,1
576,15,-0.564928,0.154617,-0.199977,-0.086942,-0.178168,-0.162784,-0.288018,1,1
560,15,-0.666501,0.181767,-0.108876,-0.207535,-0.135211,-0.214853,-0.215078,1,1
573,15,-0.546458,0.152173,-0.114020,-0.184017,-0.097514,-0.212037,-0.269069,1,1
586,15,-0.599868,0.157313,-0.284022,-0.084809,-0.103956,-0.220146,-0.253610,1,1
599,15,-0.568260,0.234143,-0.261437,-0.247448,-0.156424,-0.248973,-0.190965,1,1
569,15,-0.689139,0.317436,-0.165393,-0.190195,-0.123436,-0.187435,-0.276633,1,0
564,15,-0.652687,0.187363,-0.228858,-0.199304,-0.152379,-0.185668,-0.168960,1,1
577,15,-0.570293,0.220290,-0.132288,-0.045190,-0.204484,-0.256721,-0.112991,1,1
578,15,-0.691847,0.203056,-0.209102,-0.219564,-0.190676,-0.161645,-0.131557,1,1
580,15,-0.501320,0.214512,-0.145311,-0.239402,-0.156424,-0.176932,-0.228117,1,1
587,15,-0.606548,0.164534,-0.219391,-0.210860,-0.205184,-0.221036,-0.326897,1,1
583,15,-0.535869,0.188878,-0.146086,-0.168676,-0.167494,-0.216132,-0.299721,1,1
592,15,-0.600706,0.169151,-0.203177,-0.229334,-0.316017,-0.223594,-0.212290,1,1
584,15,-0.614367,0.171788,-0.202179,-0.217666,-0.221824,-0.161581,-0.148999,1,1
575,15,-0.658395,0.150695,-0.085829,-0.210567,-0.110878,-0.246233,-0.272550,1,1
582,15,-0.612839,0.230373,-0.174590,-0.221100,-0.171770,-0.177474,-0.188092,1,1
579,15,-0.637852,0.194952,-0.236078,-0.172628,-0.201184,-0.151022,-0.179347,1,1
565,15,-0.658647,0.290812,-0.349039,-0.163756,-0.220219,-0.248344,-0.234250,1,1
562,15,-0.580945,0.124762,-0.289881,-0.190105,-0.127156,-0.170643,-0.186744,1,1
594,15,-0.664414,0.139104,-0.219810,-0.190739,-0.096674,-0.202826,-0.184618,1,1
597,15,-0.580601,0.165870,-0.312773,-0.201328,-0.191260,-0.206789,-0.126951,1,1
598,15,-0.562050,0.070163,-0.158257,-0.173647,-0.230678,-0.131436,-0.257855,1,1
595,15,-0.503733,0.272889,-0.106828,-0.260737,-0.155658,-0.261622,-0.244487,1,1
596,15,-0.511562,0.179954,-0.184618,-0.126169,-0.133535,-0.156433,-0.248523,1,1
593,15,-0.572537,0.128841,-0.193641,-0.225684,-0.099944,-0.114123,-0.175485,1,1
589,15,-0.623465,0.218350,-0.143706,-0.232826,-0.168558,-0.094090,-0.241329,1,1
581,15,-0.627425,0.064641,-0.187348,-0.252704,-0.110333,-0.223970,-0.137709,1,1
617,16,-0.523368,0.226912,-0.241522,-0.150604,-0.117653,-0.191437,-0.214011,1,1
604,16,-0.574723,0.145198,-0.176063,-0.153812,-0.178251,-0.077458,-0.226475,1,1
632,16,-0.557499,0.140370,-0.306938,-0.120535,-0.211923,-0.134769,-0.184572,1,1
611,16,-0.628088,0.217115,-0.209620,-0.185408,-0.221019,-0.183433,-0.141421,1,1
628,16,-0.478890,0.199085,-0.192687,-0.175911,-0.196109,-0.223127,-0.185347,1,1
625,16,-0.633431,0.144470,-0.203453,-0.230247,-0.117188,-0.112655,-0.167973,1,1
637,16,-0.527504,0.277565,-0.195692,-0.209438,-0.176688,-0.123782,-0.363618,1,1
636,16,-0.608046,0.220909,-0.224479,-0.106845,-0.229208,-0.108610,-0.187968,1,1
612,16,-0.603847,0.256866,-0.156875,-0.172177,-0.184821,-0.220493,-0.143736,1,1
607,16,-0.584147,0.211472,-0.182560,-0.193217,-0.109861,-0.165194,-0.258352,1,1
613,16,-0.553968,0.249123,-0.289664,-0.224677,-0.260894,-0.133157,-0.194799,1,1
639,16,-0.603757,0.105997,-0.281249,-0.145081,-0.103483,-0.126257,-0.244434,1,1
626,16,-0.526949,0.082006,-0.197870,-0.127000,-0.005390,-0.113899,-0.199005,1,1
629,16,-0.547946,0.085201,-0.207508,-0.179630,-0.221228,-0.214207,-0.190261,1,1
619,16,-0.589768,0.183972,-0.233157,-0.138638,-0.204772,-0.215833,-0.258177,1,1
618,16,-0.691018,0.201095,-0.199255,-0.089903,-0.106320,-0.227798,-0.241945,1,1
615,16,-0.637992,0.165947,-0.190866,-0.192358,-0.184658,-0.225472,-0.197831,1,1
605,16,-0.669304,0.209452,-0.214401,-0.093955,-0.098067,-0.129568,-0.312854,1,1
620,16,-0.635155,0.128213,-0.259769,-0.233615,-0.142912,-0.115362,-0.197479,1,1
616,16,-0.633592,0.237932,-0.200085,-0.158890,-0.200055,-0.157302,-0.186793,1,1
608,16,-0.625557,0.159022,-0.244737,-0.121018,-0.100467,-0.174249,-0.173653,1,1
623,16,-0.602066,0.188012,-0.188563,-0.182717,-0.149746,-0.174034,-0.263132,1,1
609,16,-0.672519,0.118425,-0.227646,-0.162458,-0.226532,-0.213892,-0.291871,1,1
602,16,-0.680741,0.226954,-0.172196,-0.145446,-0.165204,-0.255344,-0.196628,1,1
638,16,-0.600448,0.168460,-0.280565,-0.284313,-0.139908,-0.120474,-0.118986,1,1
621,16,-0.584135,0.077272,-0.287943,-0.132399,-0.283898,-0.153943,-0.145001,1,1
627,16,-0.695725,0.132836,-0.230824,-0.185812,-0.161653,-0.188403,-0.196257,1,1
603,16,-0.606127,0.219079,-0.243553,-0.274218,-0.146013,-0.237108,-0.174602,1,1
631,16,-0.630622,0.133330,-0.282568,-0.131196,-0.196562,-0.121153,-0.197470,1,1
634,16,-0.544446,0.075016,-0.170813,-0.108054,-0.151762,-0.135196,-0.230505,1,1
614,16,-0.536068,0.175513,-0.172286,-0.218517,-0.190953,-0.204376,-0.211783,1,1
600,16,-0.656787,0.060236,-0.273678,-0.169359,-0.123942,-0.175870,-0.277512,1,1
633,16,-0.561117,0.181222,-0.192762,-0.184834,-0.223973,-0.192080,-0.184432,1,1
610,16,-0.620733,0.240974,-0.218831,-0.181130,-0.157123,-0.107706,-0.095104,1,1
606,16,-0.659301,0.193615,-0.217626,-0.160184,-0.123385,-0.201521,-0.323155,1,1
622,16,-0.566752,0.235499,-0.216946,-0.133994,-0.229874,-0.142931,-0.192578,1,1
630,16,-0.600999,0.216835,-0.220579,-0.193169,-0.197846,-0.208305,-0.124926,1,1
601,16,-0.654507,0.231820,-0.116355,-0.147950,-0.181098,-0.220821,-0.183851,1,1
624,16,-0.551409,0.177485,-0.205433,-0.235972,-0.181922,-0.183086,-0.223656,1,1
635,16,-0.598202,0.286575,-0.222410,-0.108653,-0.107325,-0.150104,-0.184030,1,1
673,17,-0.540097,0.228809,-0.191210,-0.193035,-0.103617,-0.159252,-0.184577,1,1
672,17,-0.458047,0.183924,-0.173797,-0.148739,-0.131175,-0.176813,-0.219893,1,1
671,17,-0.542024,0.178428,-0.241092,-0.173850,-0.156691,-0.170230,-0.202309,1,1
651,17,-0.494348,0.122563,-0.262758,-0.121225,-0.171402,-0.159362,-0.129628,1,1
670,17,-0.512549,0.156716,-0.185720,-0.159822,-0.202451,-0.202029,-0.209757,1,1
642,17,-0.591892,0.184598,-0.047505,-0.195646,-0.086991,-0.190949,-0.159991,1,1
640,17,-0.603492,0.133254,-0.294201,-0.077485,-0.159626,-0.084544,-0.139030,1,1
659,17,-0.665038,0.165658,-0.129536,-0.192939,-0.157782,-0.207239,-0.184871,1,1
661,17,-0.498128,0.108779,-0.239790,-0.188907,-0.134024,-0.132296,-0.251248,1,1
654,17,-0.585521,0.208319,-0.241365,-0.072475,-0.029513,-0.241900,-0.190338,1,1
674,17,-0.613740,0.172435,-0.255514,-0.176737,-0.178130,-0.217665,-0.178167,1,1
658,17,-0.596301,0.166189,-0.359536,-0.183808,-0.075126,-0.182193,-0.207744,1,1
645,17,-0.619207,0.225865,-0.218843,-0.207695,-0.186561,-0.128448,-0.129820,1,1
649,17,-0.532461,0.144415,-0.136550,-0.197116,-0.105686,-0.207097,-0.184220,1,1
660,17,-0.662781,0.264469,-0.268608,-0.067443,-0.156081,-0.122610,-0.162580,1,1
647,17,-0.575581,0.230645,-0.161717,-0.150656,-0.179886,-0.229541,-0.244771,1,1
667,17,-0.508014,0.209308,-0.228043,-0.135741,-0.171930,-0.163648,-0.146623,1,1
655,17,-0.551486,0.147100,-0.191005,-0.211053,-0.104938,-0.200600,-0.146415,1,1
653,17,-0.607337,0.086760,-0.203846,-0.140426,-0.079010,-0.205914,-0.195937,1,1
643,17,-0.627222,0.281698,-0.163926,-0.255998,-0.108687,-0.127475,-0.118626,1,1
662,17,-0.581658,0.224338,-0.187008,-0.189427,-0.200247,-0.137683,-0.206073,1,1
668,17,-0.582105,0.115752,-0.142695,-0.146119,-0.191068,-0.104801,-0.192679,1,1
669,17,-0.588250,0.145360,-0.183419,-0.090131,-0.155362,-0.177024,-0.153947,1,1
648,17,-0.681835,0.174259,-0.248763,-0.126945,-0.233953,-0.123678,-0.205841,1,1
675,17,-0.603331,0.186273,-0.259382,-0.152810,-0.135778,-0.128925,-0.243584,1,1
657,17,-0.558152,0.192531,-0.278119,-0.174140,-0.216932,-0.178662,-0.200132,1,1
666,17,-0.512732,0.216907,-0.191352,-0.168485,-0.069255,-0.153075,-0.141346,1,1
678,17,-0.567626,0.166862,-0.160826,-0.278031,-0.190870,-0.096645,-0.229221,1,1
641,17,-0.671011,0.115766,-0.192651,-0.308589,-0.121145,-0.215587,-0.238369,1,1
677,17,-0.624555,0.127726,-0.229433,-0.125469,-0.137437,-0.131060,-0.252859,1,1
652,17,-0.680943,0.204075,-0.257845,-0.128251,-0.074404,-0.084069,-0.211165,1,1
663,17,-0.704116,0.260929,-0.141352,-0.223867,-0.152174,-0.111811,-0.211704,1,1
646,17,-0.607771,0.178790,-0.294555,-0.245742,-0.089604,-0.144589,-0.287763,1,1
650,17,-0.606740,0.139935,-0.203884,-0.153368,-0.128750,-0.177163,-0.104417,1,1
679,17,-0.514879,0.076367,-0.201887,-0.181509,-0.148803,-0.207475,-0.276284,1,1
664,17,-0.590573,0.205005,-0.195866,-0.205837,-0.145366,-0.098854,-0.228305,1,1
656,17,-0.622539,0.245325,-0.232204,-0.213297,-0.211264,-0.214481,-0.220949,1,1
644,17,-0.629590,0.164407,-0.220304,-0.090007,-0.127057,-0.160510,-0.202217,1,1
676,17,-0.527290,0.225191,-0.237493,-0.186132,-0.138704,-0.113222,-0.247702,1,1
665,17,-0.505907,0.179826,-0.183177,-0.173019,-0.208991,-0.243441,-0.164277,1,1
713,18,-0.549907,0.136603,-0.136545,-0.193325,-0.101652,-0.182616,-0.120682,1,1
718,18,-0.580681,0.228006,-0.110570,-0.222682,-0.144186,-0.211919,-0.129655,1,1
708,18,-0.583427,0.192982,-0.144299,-0.210068,-0.215860,-0.147324,-0.197785,1,1
694,18,-0.594699,0.189471,-0.103639,-0.075924,-0.162850,-0.210124,-0.191837,1,1
692,18,-0.582080,0.126776,-0.144003,-0.105841,-0.085246,-0.113951,-0.217941,1,1
681,18,-0.533700,0.179623,-0.208022,-0.060722,-0.102152,-0.185628,-0.206671,1,1
705,18,-0.494010,0.187458,-0.274787,-0.164079,-0.109912,-0.188673,-0.145027,1,1
684,18,-0.589247,0.254946,-0.133478,-0.222970,-0.179983,-0.225909,-0.217914,1,1
715,18,-0.598820,0.107055,-0.074439,-0.126482,-0.126796,-0.199161,-0.149648,1,1
680,18,-0.547778,0.200802,-0.135971,-0.050386,-0.154317,-0.172169,-0.135546,1,1
714,18,-0.522755,0.161737,-0.172929,-0.230073,-0.137203,-0.107952,-0.161526,1,1
703,18,-0.467618,0.228748,-0.199133,-0.039967,-0.152666,-0.148708,-0.171999,1,1
689,18,-0.561582,0.247799,-0.141423,-0.219287,-0.084113,-0.156511,-0.196015,1,1
716,18,-0.487009,0.081271,-0.142866,-0.079717,-0.102538,-0.202298,-0.239272,1,1
699,18,-0.598435,0.213151,-0.187508,-0.162002,-0.220806,-0.113018,-0.198266,1,1
702,18,-0.543256,0.099018,-0.241650,-0.197091,-0.127994,-0.165531,-0.097166,1,1
709,18,-0.588339,0.136877,-0.163551,-0.116793,-0.179138,-0.213495,-0.174151,1,1
712,18,-0.530990,0.183950,-0.205768,-0.201658,-0.046540,-0.178739,-0.174145,1,1
700,18,-0.649145,0.185339,-0.146919,-0.193505,-0.110784,-0.230274,-0.201380,1,1
697,18,-0.632122,0.183890,-0.139421,-0.151087,-0.168879,-0.148401,-0.155862,1,1
683,18,-0.512932,0.177944,-0.222643,-0.104869,-0.093044,-0.209711,-0.128119,1,1
707,18,-0.523188,0.250890,-0.182032,-0.188998,-0.180791,-0.163240,-0.220326,1,1
685,18,-0.565384,0.185453,-0.254819,-0.144366,-0.116018,-0.198298,-0.236491,1,1
695,18,-0.642334,0.244213,-0.248524,-0.132911,-0.114373,-0.215676,-0.179900,1,1
710,18,-0.663075,0.146846,-0.184415,-0.166753,-0.130940,-0.155939,-0.170126,1,1
717,18,-0.575804,0.145148,-0.207455,-0.225254,-0.141077,-0.152246,-0.185352,1,1
693,18,-0.534185,0.206533,-0.242339,-0.126928,-0.096813,-0.083220,-0.173200,1,1
687,18,-0.582318,0.174158,-0.219468,-0.218722,-0.136950,-0.217113,-0.294071,1,1
682,18,-0.598099,0.271816,-0.208178,-0.216448,-0.182380,-0.187023,-0.209063,1,1
701,18,-0.450226,0.205621,-0.089967,-0.206976,-0.090064,-0.147345,-0.155575,1,1
696,18,-0.561939,0.178119,-0.130125,-0.072854,-0.182759,-0.115901,-0.132429,1,1
704,18,-0.480136,0.257952,-0.274644,-0.100723,-0.168436,-0.192396,-0.210174,1,1
690,18,-0.599360,0.229848,-0.183065,-0.165510,-0.194452,-0.108461,-0.174118,1,1
719,18,-0.577338,0.142715,-0.137126,-0.205108,-0.094592,-0.212041,-0.255564,1,1
711,18,-0.569868,0.114868,-0.258693,-0.048317,-0.166726,-0.206844,-0.229089,1,1
686,18,-0.536122,0.175969,-0.127619,-0.175189,-0.102045,-0.156020,-0.181626,1,1
698,18,-0.558009,0.214100,-0.147450,-0.212512,-0.050328,-0.222007,-0.225305,1,1
691,18,-0.535237,0.103703,-0.107597,-0.173529,-0.168331,-0.182478,-0.156037,1,1
706,18,-0.548344,0.137447,-0.248698,-0.181729,-0.086168,-0.147234,-0.126697,1,1
688,18,-0.558065,0.203094,-0.209953,-0.198623,-0.228223,-0.178510,-0.177962,1,1
741,19,-0.516004,0.195463,-0.243749,-0.172371,-0.137226,-0.136034,-0.184031,1,1
720,19,-0.581925,0.199085,-0.163757,-0.225607,-0.102718,-0.130328,-0.174033,1,1
751,19,-0.548325,0.152692,-0.191179,-0.137576,-0.122342,-0.174388,-0.171939,1,1
743,19,-0.578696,0.216687,-0.080528,-0.111190,-0.148433,-0.186400,-0.090908,1,1
742,19,-0.602079,0.206944,-0.188586,-0.128713,0.015997,-0.237498,-0.169689,1,1
723,19,-0.633249,0.216918,-0.189661,-0.191539,-0.085863,-0.082032,-0.189700,1,1
729,19,-0.649730,0.200810,-0.184036,-0.165328,-0.097851,-0.175224,-0.035916,1,1
739,19,-0.589530,0.125730,-0.257182,-0.179742,-0.079058,-0.107737,-0.102301,1,1
758,19,-0.561645,0.151752,-0.172661,-0.132603,-0.104690,-0.114624,-0.179877,1,1
757,19,-0.508079,0.171296,-0.055412,-0.111586,-0.061344,-0.164171,-0.183287,1,1
754,19,-0.569186,0.147610,-0.164959,-0.177952,-0.143219,-0.127894,-0.168515,1,1
738,19,-0.611896,0.185450,-0.197375,-0.180935,-0.101570,-0.169786,-0.130823,1,1
733,19,-0.553008,0.145292,-0.191692,-0.180270,-0.193199,-0.225516,-0.235036,1,1
727,19,-0.513785,0.299595,-0.175816,-0.174149,-0.127768,-0.086497,-0.265269,1,1
756,19,-0.474669,0.156884,-0.159109,-0.144353,-0.173661,-0.198311,-0.107175,1,1
732,19,-0.485834,0.274742,-0.207541,-0.149436,-0.080585,-0.126062,-0.204400,1,1
737,19,-0.539525,0.182110,-0.195726,-0.184765,-0.123338,-0.197962,-0.168626,1,1
740,19,-0.579718,0.187507,-0.183438,-0.123138,-0.201546,-0.202732,-0.128460,1,1
759,19,-0.556015,0.168155,-0.266225,-0.177627,-0.148228,-0.214130,-0.117735,1,1
753,19,-0.542901,0.133231,-0.164333,-0.093935,-0.109438,-0.190331,-0.183686,1,1
749,19,-0.551123,0.130515,-0.192824,-0.061517,-0.092341,-0.173638,-0.234833,1,1
745,19,-0.492200,0.201250,-0.178510,-0.188421,-0.115906,-0.168578,-0.104225,1,1
721,19,-0.589836,0.207814,-0.189298,-0.126947,-0.195779,-0.012276,-0.100817,1,1
752,19,-0.512321,0.196244,-0.192136,-0.141879,-0.076650,-0.087098,-0.171482,1,1
730,19,-0.514588,0.160986,-0.194867,-0.152366,-0.104904,-0.121667,-0.124267,1,1
728,19,-0.588922,0.095395,-0.186225,-0.073675,0.048890,-0.152442,-0.189560,1,1
736,19,-0.560165,0.120635,-0.235921,-0.194435,-0.183947,-0.249429,-0.105030,1,1
724,19,-0.518404,0.149710,-0.161576,-0.134998,-0.113608,-0.150802,-0.140651,1,1
755,19,-0.475314,0.312966,-0.154119,-0.062565,-0.148809,-0.068226,-0.156339,1,1
750,19,-0.645961,0.258421,-0.277276,-0.163563,-0.111977,-0.085886,-0.145094,1,1
735,19,-0.456555,0.128085,-0.144488,-0.131949,-0.065351,-0.175099,-0.102169,1,1
746,19,-0.525344,0.237320,-0.030044,-0.124193,-0.138432,-0.178022,-0.091667,1,1
726,19,-0.578467,0.232365,-0.254913,-0.133909,-0.126770,-0.265618,-0.197798,1,1
722,19,-0.638790,0.203459,-0.220977,-0.086700,-0.051174,-0.087141,-0.191623,1,1
731,19,-0.549850,0.171198,-0.245161,-0.134579,-0.137974,-0.125547,-0.177947,1,1
747,19,-0.507639,0.200022,-0.112320,-0.109053,-0.177352,-0.125860,-0.261004,1,1
734,19,-0.548514,0.183062,-0.183501,-0.199321,-0.135896,-0.155809,-0.148275,1,1
748,19,-0.459188,0.209512,-0.270641,-0.150464,-0.136567,-0.235562,-0.143908,1,1
744,19,-0.485132,0.286061,-0.188455,-0.131836,-0.094220,-0.227971,-0.259904,1,1
725,19,-0.532830,0.144055,-0.202410,-0.090765,-0.132165,-0.174510,-0.171931,1,1
781,20,-0.441819,0.193982,-0.235565,-0.118877,-0.136913,-0.181184,-0.193817,1,1
798,20,-0.502113,0.224241,-0.119699,-0.153186,-0.142034,-0.142792,-0.163323,1,1
796,20,-0.520008,0.165162,-0.314769,-0.152136,-0.113359,-0.156117,-0.215386,1,1
768,20,-0.451059,0.139275,-0.161630,-0.195456,-0.131510,-0.199235,-0.196263,1,1
766,20,-0.595015,0.207818,-0.210737,-0.143795,0.000139,-0.155918,-0.084589,1,1
778,20,-0.542679,0.154701,-0.225390,-0.143969,-0.168459,-0.113550,-0.189677,1,1
775,20,-0.522197,0.243894,-0.182534,-0.186733,-0.173051,-0.173034,-0.247715,1,1
763,20,-0.513513,0.157230,-0.113440,-0.156434,-0.140675,-0.126621,-0.133023,1,1
791,20,-0.548254,0.235232,-0.252436,-0.091904,-0.159934,-0.129917,-0.162809,1,1
777,20,-0.505604,0.254653,-0.178894,-0.149700,-0.091968,-0.157072,-0.097023,1,1
771,20,-0.456409,0.208743,-0.208017,-0.131809,-0.174567,-0.075597,-0.208131,1,1
764,20,-0.532152,0.202100,-0.231195,-0.088494,-0.155187,-0.059402,-0.214359,1,1
786,20,-0.518427,0.167379,-0.130562,-0.151272,-0.155493,-0.126568,-0.260526,1,1
773,20,-0.521816,0.281358,-0.071780,-0.131977,-0.107559,-0.046536,-0.189369,1,1
785,20,-0.438429,0.194163,-0.138109,0.008204,-0.155071,-0.079609,-0.142903,1,1
784,20,-0.472498,0.250503,-0.202155,-0.089697,-0.185618,-0.087114,-0.178359,1,1
787,20,-0.403837,0.153936,-0.132744,-0.120974,-0.131882,-0.287566,-0.085277,1,1
767,20,-0.511360,0.243852,-0.229288,-0.051046,-0.041666,-0.120821,-0.189570,1,1
783,20,-0.563364,0.223950,-0.233206,-0.082389,-0.091408,-0.159519,-0.168170,1,1
772,20,-0.614590,0.263995,-0.130951,-0.111483,-0.141824,-0.120968,-0.246673,1,1
760,20,-0.658869,0.266486,-0.159500,-0.176527,-0.110089,-0.156511,-0.197193,1,0
765,20,-0.525257,0.175343,-0.184905,-0.134503,-0.120550,-0.255114,-0.205813,1,1
769,20,-0.555077,0.248236,-0.200916,-0.101258,-0.178596,-0.204453,-0.157517,1,1
799,20,-0.465545,0.184523,-0.162210,-0.171326,-0.142292,-0.072862,-0.177967,1,1
788,20,-0.557164,0.209377,-0.185077,-0.188846,-0.110383,-0.128684,-0.200024,1,1
782,20,-0.448437,0.174956,-0.192518,-0.202283,-0.107969,-0.147960,-0.183969,1,1
776,20,-0.509081,0.124176,-0.214927,-0.183187,-0.069539,-0.083579,-0.149064,1,1
761,20,-0.622969,0.219022,-0.143193,-0.090811,-0.024133,-0.160402,-0.218662,1,1
770,20,-0.466449,0.141252,-0.205309,-0.081889,-0.098642,-0.214194,-0.122751,1,1
795,20,-0.558439,0.183361,-0.157723,-0.035616,-0.181467,-0.137186,-0.223186,1,1
780,20,-0.521439,0.232867,-0.124325,-0.233719,-0.083761,-0.185728,-0.095471,1,1
779,20,-0.545174,0.224522,-0.127794,-0.110074,-0.155237,-0.153980,-0.178747,1,1
794,20,-0.453422,0.171602,-0.148095,-0.148884,-0.078151,-0.088281,-0.094598,1,1
762,20,-0.562455,0.291675,-0.220150,-0.151551,-0.188360,-0.194219,-0.172472,1,1
790,20,-0.444470,0.228322,-0.129356,-0.194066,-0.150783,-0.151959,-0.180720,1,1
774,20,-0.435272,0.213900,-0.209354,-0.213971,-0.127310,-0.157083,-0.145144,1,1
792,20,-0.454588,0.129580,-0.137507,-0.056292,-0.094575,-0.138464,-0.179132,1,1
793,20,-0.478986,0.200943,-0.202704,-0.070884,-0.113565,-0.221037,-0.168798,1,1
789,20,-0.422900,0.188237,-0.245831,-0.137805,-0.130241,-0.133070,-0.245607,1,1
797,20,-0.410674,0.202663,-0.216410,-0.100226,-0.156918,-0.104989,-0.083168,1,1
823,21,-0.489437,0.147301,-0.207689,-0.100169,-0.152434,-0.126061,-0.203915,1,1
807,21,-0.558330,0.203979,-0.216266,-0.195645,-0.074425,-0.079335,-0.110570,1,1
828,21,-0.393200,0.140155,-0.108495,-0.177003,-0.118984,-0.123627,-0.171203,1,1
819,21,-0.514752,0.271127,-0.191666,-0.176152,-0.137349,-0.131541,-0.131144,1,1
812,21,-0.595600,0.110801,-0.135845,-0.186018,-0.068265,-0.130009,-0.175638,1,1
806,21,-0.543409,0.202301,-0.086369,-0.164677,-0.090270,-0.192117,-0.189973,1,1
839,21,-0.508112,0.091991,-0.168920,-0.140404,-0.169676,-0.032313,-0.172001,1,1
816,21,-0.543117,0.204597,-0.173228,-0.024048,-0.089980,-0.113805,-0.171234,1,1
829,21,-0.423763,0.174026,-0.222646,-0.077997,-0.079512,-0.211652,-0.133802,1,1
817,21,-0.441167,0.148272,-0.129297,-0.092571,-0.081675,-0.098429,-0.196265,1,1
804,21,-0.447582,0.204907,-0.214292,-0.112574,-0.139937,-0.181691,-0.100546,1,1
820,21,-0.441661,0.163200,-0.166047,-0.178106,-0.181454,-0.140127,-0.065451,1,1
825,21,-0.458182,0.237374,-0.080852,-0.059687,-0.147688,-0.107609,-0.269850,1,1
838,21,-0.380418,0.255105,-0.205069,-0.129802,-0.191467,-0.169558,-0.219067,1,1
833,21,-0.412498,0.251111,-0.141669,-0.149130,-0.082970,-0.142303,-0.137525,1,1
834,21,-0.497084,0.135550,-0.122624,-0.223222,-0.144841,-0.171079,-0.183175,1,1
824,21,-0.462094,0.144948,-0.281423,-0.037939,-0.162338,-0.175888,-0.097590,1,1
813,21,-0.491916,0.218702,-0.178454,-0.156395,-0.165025,-0.150809,-0.034029,1,1
827,21,-0.530081,0.166348,-0.165061,-0.098837,-0.111457,-0.139624,-0.220563,1,1
802,21,-0.510221,0.197285,-0.171157,-0.142020,-0.113071,-0.075749,-0.115376,1,1
836,21,-0.609646,0.107870,-0.159926,-0.116920,-0.116717,-0.175830,-0.180857,1,1
800,21,-0.495628,0.168515,-0.121273,-0.125039,-0.040878,-0.214283,-0.236073,1,1
814,21,-0.573994,0.145988,-0.289841,-0.146905,-0.130816,-0.180306,-0.155958,1,1
809,21,-0.531782,0.175644,-0.176076,-0.077964,-0.101248,-0.179666,-0.134777,1,1
815,21,-0.493206,0.152120,-0.193856,-0.108479,-0.113674,-0.223856,-0.116167,1,1
801,21,-0.540948,0.242474,-0.195591,-0.181004,-0.067536,-0.075436,-0.152846,1,1
822,21,-0.456008,0.185014,-0.172970,-0.118767,-0.181302,-0.117774,-0.130895,1,1
831,21,-0.444766,0.203162,-0.159431,-0.100949,-0.093023,-0.159655,-0.193796,1,1
818,21,-0.533206,0.239465,-0.164802,-0.069942,-0.076659,-0.068925,-0.238138,1,1
826,21,-0.509411,0.091121,-0.132570,-0.079456,-0.105475,-0.114456,-0.206481,1,1
835,21,-0.516474,0.186708,-0.163831,-0.166696,-0.140468,-0.149167,-0.115914,1,1
830,21,-0.493801,0.135318,-0.140471,-0.082518,-0.158297,-0.220763,-0.107140,1,1
808,21,-0.618331,0.203107,-0.230946,-0.127296,-0.132207,-0.163882,-0.218685,1,1
821,21,-0.530533,0.090473,-0.166084,-0.163241,-0.200290,-0.058877,-0.210297,1,1
803,21,-0.498790,0.308499,-0.123204,-0.291614,-0.076023,-0.075122,-0.157756,1,1
811,21,-0.429092,0.171844,-0.222644,-0.280307,-0.062435,-0.125903,-0.220711,1,1
837,21,-0.515217,0.130843,-0.132839,-0.122900,-0.097302,-0.079114,-0.145800,1,1
805,21,-0.611440,0.234174,-0.162152,-0.149226,-0.124771,-0.184710,-0.084157,1,1
810,21,-0.492669,0.224086,-0.190546,-0.118644,-0.129153,-0.286753,-0.184605,1,1
832,21,-0.425403,0.178242,-0.123787,-0.120490,-0.092681,-0.203536,-0.188878,1,1
847,22,-0.463581,0.152609,-0.206119,-0.122367,-0.081978,-0.126567,-0.209834,1,1
843,22,-0.537279,0.295327,-0.153080,-0.181194,-0.084973,-0.043922,-0.191263,1,1
872,22,-0.450226,0.122401,-0.136974,-0.169297,-0.161374,-0.089387,-0.059337,1,1
878,22,-0.389888,0.141622,-0.112775,-0.062811,-0.126083,-0.096858,-0.145944,1,1
867,22,-0.403414,0.172116,-0.139403,-0.068900,-0.056220,-0.076042,-0.144038,1,1
853,22,-0.492496,0.241427,-0.146089,-0.131560,-0.114171,-0.128978,-0.123175,1,1
866,22,-0.440884,0.132158,-0.165788,-0.074560,-0.151340,-0.104235,-0.156093,1,1
845,22,-0.557145,0.177032,-0.083668,-0.073698,-0.093785,-0.097536,-0.097060,1,1
846,22,-0.468602,0.133933,-0.062998,-0.079461,-0.133861,-0.207705,-0.161842,1,1
863,22,-0.443944,0.184987,-0.072584,-0.123271,-0.045084,-0.093744,-0.123285,1,1
857,22,-0.479996,0.222087,-0.144302,-0.218558,-0.143831,-0.123711,-0.090215,1,1
873,22,-0.356156,0.091802,-0.168262,-0.091928,-0.103988,-0.147517,-0.188033,0,1
844,22,-0.459411,0.249798,-0.087536,-0.101228,-0.062940,-0.085494,-0.067389,1,1
850,22,-0.525766,0.201842,-0.104333,-0.134741,-0.139810,-0.103938,-0.183415,1,1
861,22,-0.407794,0.144534,-0.215774,-0.096249,-0.024909,-0.035775,-0.117985,1,1
871,22,-0.344535,0.222748,-0.091824,-0.150947,-0.204735,-0.024072,-0.104894,0,1
870,22,-0.509725,0.271580,-0.193596,-0.115945,-0.072263,-0.111475,-0.177247,1,1
864,22,-0.397464,0.237070,-0.182794,-0.072687,-0.074954,-0.179301,-0.116147,1,1
868,22,-0.421988,0.117277,-0.095115,-0.039574,-0.088094,-0.122457,-0.152374,1,1
856,22,-0.569699,0.208491,-0.186023,-0.062828,-0.043163,-0.127002,-0.169584,1,1
855,22,-0.428964,0.202132,-0.170746,-0.124872,-0.156278,-0.083661,-0.159211,1,1
877,22,-0.473947,0.228502,-0.086575,-0.061429,-0.101052,-0.094028,-0.128378,1,1
849,22,-0.563520,0.106591,-0.156172,-0.142802,-0.081959,-0.149409,-0.134130,1,1
860,22,-0.481893,0.222971,-0.155576,-0.136293,-0.120895,-0.262753,-0.169742,1,1
862,22,-0.425233,0.176784,-0.131715,-0.136673,-0.085829,-0.214989,-0.145544,1,1
841,22,-0.516024,0.213572,-0.108949,-0.197468,-0.138208,-0.132144,-0.202186,1,1
858,22,-0.413021,0.232616,-0.239633,-0.057625,-0.178495,-0.135034,-0.263941,1,1
840,22,-0.521101,0.176942,-0.205441,-0.119911,-0.156281,-0.036912,-0.140297,1,1
851,22,-0.506553,0.140484,-0.170799,-0.138821,-0.105882,-0.148277,-0.143804,1,1
869,22,-0.523995,0.136698,-0.152454,-0.112452,-0.042368,-0.114291,-0.094910,1,1
842,22,-0.513246,0.172581,-0.149912,-0.115476,-0.040485,-0.058241,-0.181251,1,1
876,22,-0.436819,0.278567,-0.058289,-0.115679,-0.106346,-0.060803,-0.103742,1,1
874,22,-0.429785,0.230268,-0.164982,-0.199759,-0.091425,-0.003758,-0.104317,1,1
879,22,-0.409472,0.197230,-0.118423,-0.181634,-0.020467,-0.102086,-0.177372,1,1
859,22,-0.527743,0.119905,-0.163385,-0.180390,-0.049276,-0.120711,-0.162686,1,1
875,22,-0.397889,0.205677,-0.116250,-0.171648,-0.176026,-0.145355,-0.147965,1,1
865,22,-0.503769,0.186010,-0.139779,-0.139317,-0.133224,-0.129874,-0.181436,1,1
848,22,-0.516372,0.266752,-0.159200,-0.162470,-0.155336,-0.105291,-0.113957,1,1
854,22,-0.532108,0.156361,-0.175751,-0.138758,-0.134181,-0.132531,-0.092109,1,1
852,22,-0.459887,0.225518,-0.164841,-0.112481,-0.053147,-0.182127,-0.217036,1,1
898,23,-0.465273,0.116965,-0.101660,-0.074438,-0.081393,-0.142232,-0.135526,1,1
885,23,-0.448182,0.239540,-0.172359,-0.061227,-0.084531,-0.048449,-0.123682,1,1
890,23,-0.468455,0.130642,-0.226525,0.003498,-0.195130,-0.156274,-0.192923,1,1
892,23,-0.470520,0.244966,-0.166494,-0.175503,-0.042947,-0.167608,-0.146822,1,1
914,23,-0.345513,0.185482,-0.053544,-0.108006,-0.161040,-0.135344,-0.253917,1,1
911,23,-0.379762,0.168413,-0.170896,-0.139355,-0.008416,-0.101364,-0.140848,1,1
901,23,-0.453814,0.261794,-0.112559,-0.094752,-0.104684,-0.022216,-0.024220,1,1
882,23,-0.548996,0.105020,-0.155188,-0.048906,-0.110536,-0.060611,-0.090547,1,1
917,23,-0.478658,0.175280,-0.115297,-0.109468,-0.072147,-0.171264,-0.080730,1,1
918,23,-0.483170,0.105702,-0.173925,-0.067981,-0.050379,-0.109871,-0.159055,1,1
902,23,-0.399420,0.079249,-0.141885,-0.049405,-0.148307,-0.130779,-0.114743,1,1
886,23,-0.459531,0.131197,-0.108154,-0.206312,-0.089804,-0.094361,-0.184134,1,1
910,23,-0.377517,0.227180,-0.197790,-0.209914,-0.189358,-0.097378,-0.124360,1,1
894,23,-0.500855,0.228327,-0.142175,-0.257275,-0.106437,-0.087069,-0.148543,1,1
900,23,-0.457079,0.223426,-0.094971,-0.115346,0.064509,-0.087128,-0.142705,1,1
908,23,-0.449983,0.175384,-0.196882,-0.059888,-0.124048,-0.078010,-0.114482,1,1
887,23,-0.340682,0.278531,-0.069923,-0.163196,-0.132939,-0.148802,-0.160124,1,1
888,23,-0.564282,0.183662,-0.160081,-0.019176,-0.051806,-0.091253,-0.169778,1,1
919,23,-0.298044,0.096855,-0.059334,-0.054517,-0.001364,-0.053308,-0.155464,0,1
915,23,-0.561962,0.024320,-0.117555,-0.079461,-0.092871,-0.157910,-0.084993,0,1
880,23,-0.478909,0.256947,-0.089142,-0.117126,-0.111702,-0.191409,-0.195843,1,1
916,23,-0.430239,0.179928,-0.042928,-0.107285,-0.095758,0.002109,-0.138333,1,1
895,23,-0.478247,0.098902,-0.072360,-0.163218,-0.162324,-0.155895,-0.095933,1,1
883,23,-0.470245,0.181665,-0.172900,-0.128859,-0.134535,-0.065120,-0.141415,1,1
896,23,-0.516078,0.193121,-0.207354,-0.081901,-0.084485,-0.145961,-0.136596,1,1
881,23,-0.446910,0.127251,-0.178217,-0.160818,-0.092206,-0.097492,-0.186769,1,1
904,23,-0.403721,0.226087,-0.167041,-0.151378,-0.028182,-0.153658,-0.122982,1,1
903,23,-0.409833,0.102694,-0.171574,-0.079350,-0.066717,-0.087060,-0.137974,1,1
907,23,-0.455952,0.162517,-0.211001,-0.026218,-0.152640,-0.039330,-0.132795,1,1
891,23,-0.526201,0.229373,-0.153203,-0.096055,-0.128456,-0.150117,-0.136036,1,1
913,23,-0.440173,0.215728,-0.079365,-0.006681,-0.101881,-0.132522,-0.220295,1,1
905,23,-0.405691,0.082091,-0.130908,-0.112052,-0.036518,-0.032965,-0.107939,1,1
906,23,-0.474828,0.061577,-0.130791,-0.108846,0.030304,-0.075778,-0.161081,1,1
899,23,-0.531549,0.270516,-0.198667,-0.083952,-0.092312,-0.160587,-0.080484,1,1
897,23,-0.499081,0.207159,-0.154244,-0.188561,-0.078354,-0.126454,-0.124264,1,1
889,23,-0.370767,0.229427,-0.142999,-0.115571,-0.115612,-0.082634,-0.131100,1,1
884,23,-0.484347,0.315917,-0.095560,-0.122885,-0.098147,-0.100626,-0.161717,1,0
893,23,-0.606590,0.145468,-0.135978,-0.129711,-0.101193,-0.129190,-0.121667,1,0
909,23,-0.404253,0.238869,-0.138969,-0.143426,-0.092306,-0.147387,-0.090182,1,1
912,23,-0.509330,0.237502,-0.164002,-0.096124,-0.058029,-0.097623,-0.135865,1,1
928,24,-0.475799,0.162376,-0.097449,-0.099662,-0.038993,-0.104022,-0.094556,1,1
942,24,-0.420371,0.093821,-0.044962,-0.159732,-0.095918,-0.019971,-0.222451,1,1
925,24,-0.506908,0.280768,-0.196983,-0.184143,-0.086125,-0.149890,-0.194016,1,1
927,24,-0.461155,0.227912,-0.157205,-0.125564,-0.034233,-0.071786,-0.113619,1,1
944,24,-0.395415,0.295548,-0.107353,-0.086342,0.007035,-0.052477,-0.130311,1,1
938,24,-0.550222,0.255388,-0.169350,-0.150824,-0.014259,-0.049768,-0.145799,1,0
930,24,-0.380101,0.175755,-0.169634,-0.061245,-0.163545,-0.080863,-0.161074,1,1
951,24,-0.469216,0.242329,-0.018945,-0.107759,-0.054165,-0.161318,-0.153495,1,1
923,24,-0.501735,0.288808,-0.063127,-0.116169,-0.019699,-0.132776,-0.168040,1,1
953,24,-0.367108,0.114866,-0.048643,-0.139165,-0.089332,-0.029875,-0.143231,1,1
924,24,-0.486343,0.248096,-0.153565,-0.139043,-0.072574,-0.187332,-0.118559,1,1
934,24,-0.448513,0.230131,-0.104227,-0.088891,-0.101056,-0.026380,-0.091098,1,1
947,24,-0.470963,0.252336,-0.185630,-0.134566,-0.099505,-0.097430,-0.151818,1,1
935,24,-0.366012,0.214010,-0.120741,-0.137041,-0.126425,-0.098183,-0.162496,1,1
931,24,-0.475275,0.114058,-0.177078,-0.064726,-0.110472,-0.062820,-0.038155,1,1
958,24,-0.326421,0.193092,-0.232368,-0.116634,-0.081394,-0.076830,-0.072711,1,1
921,24,-0.409150,0.206389,-0.199822,-0.103977,-0.083006,-0.018172,-0.121692,1,1
920,24,-0.519147,0.280474,-0.186045,-0.072488,-0.032384,-0.077777,-0.078396,1,1
945,24,-0.437845,0.165774,-0.165117,-0.029063,-0.041750,-0.069955,-0.053043,1,1
957,24,-0.446311,0.187428,-0.148994,-0.125917,0.027909,-0.072070,-0.172522,1,1
929,24,-0.440657,0.175361,-0.115444,-0.165204,-0.194916,-0.146379,-0.074553,1,1
922,24,-0.421770,0.304378,-0.216229,-0.102793,-0.040665,-0.180954,-0.093350,1,1
937,24,-0.361721,0.187426,-0.131765,0.053980,0.017237,-0.076320,-0.139435,1,1
954,24,-0.452138,0.041335,-0.105875,-0.158101,-0.113163,-0.150471,-0.103468,0,1
952,24,-0.365579,0.224558,-0.070676,-0.058202,-0.110089,-0.027870,-0.200956,1,1
939,24,-0.487432,0.216285,-0.177691,-0.119095,-0.032504,-0.162092,-0.076594,1,1
949,24,-0.439539,0.138959,-0.127371,-0.136570,-0.081944,-0.115999,-0.081889,1,1
940,24,-0.443143,0.173928,-0.099484,-0.087193,-0.041460,-0.092316,-0.082051,1,1
955,24,-0.449452,0.224215,-0.165443,-0.081848,-0.113393,-0.061514,-0.028376,1,1
932,24,-0.441391,0.305183,-0.200999,-0.047122,-0.054142,-0.144412,-0.217421,1,1
926,24,-0.593225,0.232353,0.021113,-0.091435,-0.099456,-0.151801,-0.112744,1,0
933,24,-0.366818,0.171651,-0.106773,-0.096688,-0.148289,-0.094723,-0.230269,1,1
946,24,-0.470212,0.138626,-0.118746,-0.129582,-0.107175,-0.192973,-0.108275,1,1
950,24,-0.362755,0.133489,-0.061301,-0.099624,-0.151066,0.010061,-0.222520,1,1
943,24,-0.458167,0.164521,-0.081733,-0.079451,-0.109006,-0.017214,-0.114315,1,1
959,24,-0.347385,0.216116,-0.145171,-0.156006,-0.144871,-0.147305,-0.073194,1,1
936,24,-0.453276,0.267829,-0.026013,-0.162946,-0.049487,-0.044022,-0.229176,1,1
956,24,-0.391337,0.149689,-0.171412,-0.095888,-0.025992,-0.137701,-0.089189,1,1
948,24,-0.441899,0.219583,-0.171706,-0.168539,-0.071755,-0.067810,-0.178181,1,1
941,24,-0.456382,0.123744,-0.140853,-0.126763,-0.052127,-0.069432,0.000886,1,1
991,25,-0.409198,0.187109,-0.131897,-0.120851,-0.132916,-0.066499,-0.123265,1,1
986,25,-0.464803,0.106298,-0.132388,-0.150125,-0.103743,-0.017697,-0.033818,1,1
993,25,-0.388152,0.181072,-0.143693,-0.078636,-0.143752,-0.125850,-0.032456,1,1
985,25,-0.329599,0.216518,-0.054847,-0.080890,-0.142870,-0.041895,-0.075174,1,1
969,25,-0.470020,0.251229,-0.128977,-0.102094,-0.091293,-0.015618,-0.061242,1,1
968,25,-0.428715,0.222693,-0.226260,0.009236,-0.049707,-0.103790,-0.045871,1,1
961,25,-0.398980,0.129856,-0.140811,-0.214533,-0.092075,-0.156743,-0.088521,1,1
962,25,-0.506028,0.264713,-0.108371,-0.047997,-0.100725,-0.146430,-0.088090,1,1
988,25,-0.380807,0.140400,-0.114865,-0.034343,-0.165249,-0.055180,-0.125511,1,1
980,25,-0.348899,0.220711,-0.122572,-0.030665,-0.101044,-0.126058,-0.085267,1,1
984,25,-0.372359,0.143109,-0.062446,-0.064064,-0.066564,-0.099223,-0.097676,1,1
965,25,-0.481105,0.166050,-0.146445,-0.013832,-0.068127,-0.113050,-0.066963,1,1
998,25,-0.410588,0.208054,-0.148832,-0.091203,-0.147398,-0.109864,-0.058070,1,1
983,25,-0.370460,0.197335,-0.097430,-0.019354,-0.029341,-0.087465,-0.207315,1,1
992,25,-0.438014,0.169115,-0.080021,-0.096146,-0.078634,-0.004311,-0.093692,1,1
979,25,-0.495174,0.233462,-0.099002,-0.103185,-0.088560,-0.056758,-0.037575,1,1
997,25,-0.398188,0.185792,-0.106447,-0.019891,-0.036835,-0.085718,-0.109170,1,1
989,25,-0.400853,0.149027,-0.172074,-0.003584,-0.086282,-0.227452,-0.144359,1,1
964,25,-0.426274,0.114179,-0.122195,-0.164276,-0.047856,-0.099646,-0.117563,1,1
994,25,-0.368709,0.132323,-0.096533,-0.073693,-0.178704,-0.035224,-0.023814,1,1
966,25,-0.403023,0.211699,-0.065055,-0.034772,-0.130948,-0.143915,-0.052999,1,1
977,25,-0.357325,0.235097,-0.132207,-0.096882,-0.062945,-0.136924,-0.055329,1,1
971,25,-0.356004,0.202275,-0.163610,-0.122761,-0.106700,-0.080414,-0.136347,1,1
963,25,-0.477629,0.222199,-0.117806,-0.195903,-0.087571,-0.051327,-0.154459,1,1
996,25,-0.329125,0.190303,-0.114417,-0.047478,-0.113942,-0.093070,-0.167875,1,1
999,25,-0.405008,0.292645,-0.087745,-0.087814,-0.068041,-0.074333,-0.119787,1,1
973,25,-0.469611,0.287729,-0.231952,-0.056386,-0.024789,-0.105975,-0.191238,1,1
987,25,-0.469468,0.200862,-0.035527,-0.092785,-0.012924,0.005123,-0.116808,1,1
974,25,-0.509773,0.230474,-0.114238,-0.073719,-0.067551,-0.114470,-0.116977,1,1
975,25,-0.416877,0.192391,-0.162043,-0.106498,-0.129807,-0.064930,-0.100879,1,1
960,25,-0.486859,0.221719,-0.144793,-0.028779,-0.079271,-0.092263,-0.125121,1,1
967,25,-0.500167,0.215567,-0.204542,-0.075727,-0.074910,-0.001741,-0.127507,1,1
982,25,-0.294414,0.158797,-0.045353,-0.086618,0.037857,-0.061111,-0.113598,1,1
981,25,-0.406162,0.111345,-0.081852,-0.058001,-0.001300,-0.029427,-0.095726,1,1
972,25,-0.480639,0.205606,-0.127246,-0.070274,0.009803,-0.100940,-0.158424,1,1
995,25,-0.286715,0.132712,-0.089268,-0.083837,-0.055342,-0.152487,-0.101734,0,1
976,25,-0.488662,0.286706,-0.016626,-0.062744,-0.062997,-0.177603,-0.055502,1,1
970,25,-0.478422,0.185791,-0.067412,-0.096165,-0.060397,0.041804,-0.123634,1,1
978,25,-0.418354,0.198859,-0.174348,-0.143952,-0.120705,-0.088278,-0.100782,1,1
990,25,-0.412431,0.219879,-0.056899,-0.041467,-0.042256,-0.105686,-0.114029,1,1
1029,26,-0.373582,0.226663,-0.046397,-0.012772,-0.013038,-0.114537,-0.066450,1,1
1018,26,-0.438483,0.204844,-0.110468,-0.110060,-0.051993,-0.022626,-0.085085,1,1
1019,26,-0.487463,0.166488,-0.147423,-0.047975,-0.029698,-0.083569,-0.216259,1,1
1016,26,-0.370070,0.234876,-0.099114,-0.078791,-0.024641,-0.084811,-0.080424,1,1
1011,26,-0.381312,0.260147,-0.143054,-0.058553,-0.006087,-0.143047,-0.193610,1,1
1001,26,-0.377063,0.178619,-0.106469,-0.128065,-0.084213,-0.093711,-0.111270,1,1
1034,26,-0.348771,0.158152,-0.079543,-0.047193,-0.100762,-0.106335,-0.099345,1,1
1039,26,-0.309730,0.239052,-0.057028,-0.008917,-0.107890,-0.162325,-0.169410,1,1
1020,26,-0.430704,0.182864,-0.133539,-0.010434,0.069135,-0.112094,-0.088821,1,1
1003,26,-0.487663,0.245242,-0.153342,0.025473,-0.012258,-0.022495,-0.090539,1,1
1030,26,-0.269591,0.264593,-0.184289,-0.021139,-0.006698,-0.052690,-0.099945,0,1
1012,26,-0.394371,0.261208,-0.004397,-0.015661,-0.124706,-0.075022,-0.058808,1,1
1010,26,-0.440835,0.118342,-0.004218,-0.042556,-0.002075,-0.000538,-0.146727,1,1
1017,26,-0.480693,0.197231,-0.031537,-0.170893,0.012998,-0.102714,-0.169521,1,1
1022,26,-0.434628,0.255617,-0.147153,-0.074381,-0.053744,0.010734,-0.097954,1,1
1000,26,-0.440257,0.263393,-0.198850,-0.063754,0.006160,-0.032685,-0.071318,1,1
1025,26,-0.400851,0.155476,-0.100925,-0.004218,0.052060,-0.122678,-0.068319,1,1
1024,26,-0.330122,0.137143,-0.054647,-0.133223,-0.072846,-0.078802,-0.025774,1,1
1031,26,-0.283855,0.215648,-0.042360,-0.087374,-0.043553,-0.175641,-0.097770,1,1
1038,26,-0.436604,0.183565,-0.082496,-0.107955,-0.116838,-0.078420,-0.099245,1,1
1032,26,-0.273177,0.132402,0.010352,-0.015862,-0.045223,-0.088490,-0.104185,0,1
1008,26,-0.351241,0.258010,-0.092125,-0.036498,0.020481,-0.036682,-0.146245,1,1
1027,26,-0.384521,0.229593,-0.105652,-0.141073,-0.072186,-0.072386,-0.118492,1,1
1021,26,-0.401966,0.162473,-0.077935,-0.059399,-0.096049,-0.230399,-0.142395,1,1
1036,26,-0.370107,0.126129,-0.057277,-0.031690,0.044326,-0.124385,-0.088867,1,1
1015,26,-0.347862,0.123692,-0.157245,-0.055595,-0.040324,-0.050039,-0.152735,1,1
1007,26,-0.449641,0.254096,-0.066005,-0.128986,-0.200762,-0.109961,-0.164908,1,1
1009,26,-0.526194,0.197920,-0.138446,-0.175748,-0.098785,-0.110455,-0.055019,1,0
1013,26,-0.352855,0.267479,-0.154476,-0.025760,-0.032576,-0.107162,-0.022755,1,1
1002,26,-0.351666,0.187491,-0.193253,-0.142944,-0.048072,-0.117675,-0.141483,1,1
1014,26,-0.388861,0.222927,-0.054870,-0.076386,-0.077772,-0.121842,-0.179280,1,1
1004,26,-0.521588,0.218008,0.000453,-0.020514,-0.003728,-0.055635,-0.019586,1,0
1026,26,-0.474784,0.243797,-0.057782,-0.141181,-0.088736,-0.053196,-0.038743,1,1
1037,26,-0.431395,0.133954,-0.227193,-0.146591,0.023298,-0.099945,-0.028688,1,1
1033,26,-0.385442,0.097081,-0.132528,-0.098591,-0.090668,-0.114475,-0.123201,1,1
1005,26,-0.464857,0.166151,-0.088205,-0.116948,-0.191311,-0.047262,-0.182093,1,1
1023,26,-0.401233,0.191108,0.007550,-0.030089,-0.141182,-0.084936,-0.150118,1,1
1006,26,-0.506081,0.221391,-0.207695,-0.051429,-0.194755,-0.095794,-0.162426,1,1
1035,26,-0.438033,0.163971,-0.098158,-0.172836,-0.052148,-0.026007,-0.128490,1,1
1028,26,-0.355546,0.261562,-0.074197,-0.141824,-0.134501,-0.101226,-0.109363,1,1
1040,27,-0.390382,0.191384,-0.119690,-0.089281,-0.069091,-0.033393,-0.019384,1,1
1055,27,-0.428898,0.185334,-0.144283,-0.080452,-0.135986,-0.088536,-0.125611,1,1
1050,27,-0.370101,0.251369,-0.066415,-0.070464,-0.126661,-0.124528,-0.140100,1,1
1067,27,-0.356003,0.111845,-0.055248,-0.135420,-0.023823,-0.165736,-0.046782,1,1
1057,27,-0.456309,0.227990,-0.130824,-0.117839,0.031192,0.040267,-0.055319,1,1
1049,27,-0.332951,0.226759,-0.145784,-0.052662,-0.082344,0.019497,-0.051641,1,1
1060,27,-0.305411,0.176928,-0.009352,-0.167459,-0.044228,-0.064627,-0.093398,1,1
1047,27,-0.345250,0.243163,-0.145906,-0.073773,-0.041390,-0.142602,-0.125892,1,1
1065,27,-0.381398,0.259462,-0.074986,-0.081573,-0.080767,-0.107068,-0.067831,1,1
1071,27,-0.380746,0.148230,-0.016524,-0.127250,-0.052550,-0.040716,-0.143295,1,1
1070,27,-0.408892,0.303946,-0.096880,0.022761,-0.027604,-0.045244,-0.060487,1,1
1056,27,-0.338348,0.165414,-0.006892,0.018738,-0.051673,-0.005571,-0.066685,1,1
1068,27,-0.368413,0.210036,-0.115909,-0.114098,-0.047398,-0.068513,-0.129168,1,1
1073,27,-0.339663,0.235942,-0.125531,-0.185776,-0.012706,-0.059418,-0.093928,1,1
1052,27,-0.467919,0.114207,-0.174087,-0.108061,-0.042924,0.001637,-0.005333,1,1
1048,27,-0.397353,0.182046,-0.077241,-0.073081,-0.106749,-0.042881,-0.062590,1,1
1042,27,-0.499705,0.218537,-0.142482,-0.069127,0.042916,-0.189190,-0.038096,1,0
1061,27,-0.363238,0.175274,-0.174045,-0.019219,-0.073455,-0.063640,-0.153700,1,1
1074,27,-0.344134,0.122907,-0.168699,0.077177,-0.003330,-0.028192,-0.051250,1,1
1044,27,-0.361866,0.110365,-0.083311,-0.139663,-0.063990,-0.164360,-0.085473,1,1
1079,27,-0.309110,0.194447,-0.267923,-0.103676,-0.070926,-0.078158,-0.060641,1,1
1069,27,-0.299876,0.195549,-0.182210,0.002576,0.000714,-0.043748,0.007537,1,1
1072,27,-0.348306,0.154081,-0.072626,-0.124992,0.028858,-0.056024,-0.087759,1,1
1054,27,-0.447953,0.199394,-0.071604,-0.008112,-0.013187,-0.088671,0.007115,1,1
1063,27,-0.385058,0.182961,-0.120774,0.004202,-0.082744,-0.077885,-0.079921,1,1
1078,27,-0.351567,0.172185,-0.070791,-0.015263,-0.022969,-0.131342,-0.097355,1,1
1051,27,-0.308885,0.205318,-0.056113,0.010113,-0.033113,-0.008729,-0.077312,1,1
1062,27,-0.347642,0.158256,-0.072802,-0.006326,-0.074918,-0.041190,0.010486,1,1
1064,27,-0.307096,0.196363,-0.056562,-0.011878,-0.024353,0.003762,-0.071256,1,1
1058,27,-0.360422,0.147678,-0.127603,-0.054962,0.017533,-0.080578,-0.133275,1,1
1043,27,-0.477952,0.199735,-0.165127,-0.134415,-0.062952,-0.027634,-0.147284,1,1
1076,27,-0.401071,0.211086,-0.124966,-0.111142,-0.075844,-0.077602,-0.070779,1,1
1053,27,-0.447526,0.231574,-0.046254,-0.073704,-0.073532,-0.129562,-0.096930,1,1
1077,27,-0.403216,0.168409,-0.087162,-0.078861,-0.019720,-0.192709,-0.102688,1,1
1045,27,-0.387711,0.203209,-0.099177,0.018429,-0.049924,-0.101159,-0.113672,1,1
1075,27,-0.397390,0.159477,-0.203678,-0.099533,-0.064006,-0.064076,-0.130208,1,1
1046,27,-0.421577,0.202917,-0.067341,-0.038196,-0.025811,-0.060669,-0.013549,1,1
1041,27,-0.388982,0.149793,-0.135513,-0.015495,-0.030327,0.005980,-0.088571,1,1
1066,27,-0.343979,0.169988,-0.018289,-0.068426,-0.058178,-0.138431,-0.096686,1,1
1059,27,-0.470738,0.175046,-0.117829,0.023197,-0.100605,-0.034105,-0.063989,1,1
1109,28,-0.355873,0.155338,-0.014706,-0.095385,-0.081905,-0.102497,-0.003357,1,1
1086,28,-0.321312,0.172235,-0.039693,-0.100742,-0.044366,-0.013233,-0.249612,1,1
1107,28,-0.257318,0.165328,-0.060652,-0.072914,-0.079445,-0.012683,-0.044759,1,1
1105,28,-0.368109,0.127241,-0.019561,-0.075630,-0.039749,-0.101699,-0.080999,1,1
1089,28,-0.436350,0.147227,-0.112900,-0.084962,-0.049858,-0.008946,-0.056852,1,1
1114,28,-0.302908,0.103453,-0.137734,-0.036668,-0.008102,-0.044034,-0.135053,1,1
1103,28,-0.305455,0.268165,-0.143946,-0.058985,-0.084625,-0.080087,-0.090939,1,1
1087,28,-0.381169,0.188451,-0.054183,-0.056198,-0.019456,-0.002017,-0.070546,1,1
1102,28,-0.317219,0.087818,-0.030202,-0.081814,-0.005917,0.073128,-0.122571,1,1
1111,28,-0.372545,0.094501,-0.044457,-0.039262,-0.069460,-0.046026,-0.099859,1,1
1115,28,-0.260720,0.198269,-0.088447,0.040287,0.096337,-0.026847,-0.085655,1,1
1092,28,-0.406045,0.216775,-0.113225,-0.101500,-0.034104,-0.109972,-0.142676,1,1
1097,28,-0.375307,0.187611,-0.061184,-0.065827,0.035580,-0.034951,-0.163234,1,1
1082,28,-0.412571,0.263495,0.046946,-0.030564,-0.042023,-0.052221,-0.081093,1,1
1104,28,-0.346234,0.106863,-0.041221,-0.081607,0.025081,-0.048550,-0.083246,1,1
1098,28,-0.391305,0.152392,-0.151319,-0.045010,-0.091478,-0.098512,-0.118487,1,1
1085,28,-0.468565,0.177253,-0.178299,-0.023865,-0.010749,-0.042754,-0.009240,1,0
1090,28,-0.400145,0.210650,-0.167379,-0.103378,0.033855,-0.059007,-0.089591,1,1
1093,28,-0.391684,0.169496,-0.069459,-0.077573,-0.147471,-0.154186,-0.047839,1,1
1081,28,-0.332111,0.157882,-0.042153,-0.077795,0.034562,-0.007572,-0.018672,1,1
1083,28,-0.353675,0.147732,-0.135975,-0.061996,-0.073906,-0.107542,-0.017478,1,1
1119,28,-0.274393,0.199149,-0.111336,-0.148458,-0.013664,-0.080167,-0.165423,1,1
1108,28,-0.310937,0.181813,-0.044836,-0.038754,-0.003833,-0.048675,-0.113242,1,1
1095,28,-0.279486,0.262526,-0.072848,-0.097162,-0.036717,-0.003599,-0.125029,1,1
1096,28,-0.400605,0.256313,-0.085312,-0.003863,-0.033580,-0.060505,-0.095018,1,1
1112,28,-0.273418,0.092692,0.049730,0.053497,0.067767,0.027690,-0.110545,1,1
1091,28,-0.414129,0.177064,-0.113658,-0.108019,-0.104035,-0.025231,-0.035685,1,1
1099,28,-0.396987,0.062353,-0.062196,-0.103667,-0.080955,-0.099893,-0.015493,1,1
1088,28,-0.395780,0.185867,-0.064393,-0.062720,-0.075346,-0.091595,-0.147983,1,1
1117,28,-0.306583,0.158510,-0.023919,-0.016720,0.013426,-0.133782,-0.097098,1,1
1106,28,-0.291912,0.153595,0.009273,-0.018403,-0.034454,-0.047901,-0.110131,1,1
1101,28,-0.283176,0.102486,-0.008434,-0.045609,0.055615,0.095793,-0.058059,1,1
1118,28,-0.239705,0.161597,-0.081074,-0.082713,-0.040581,-0.114799,-0.175304,1,1
1113,28,-0.284033,0.222103,-0.140851,-0.073096,-0.075032,0.020386,-0.113994,1,1
1084,28,-0.337848,0.223245,-0.157615,-0.049282,-0.038970,-0.016304,0.034551,1,1
1080,28,-0.370306,0.208681,-0.078744,-0.104172,0.024335,0.028139,0.057812,1,1
1116,28,-0.223617,0.208077,-0.056971,-0.001099,0.009071,-0.108933,-0.119969,0,1
1100,28,-0.205768,0.101333,-0.035965,-0.035629,-0.008537,-0.066727,-0.076102,0,1
1110,28,-0.271296,0.222714,-0.105744,-0.041055,-0.044902,-0.073151,-0.056162,1,1
1094,28,-0.435713,0.163845,-0.092747,-0.099219,0.013019,-0.108662,-0.135257,1,1
1121,29,-0.404770,0.196392,-0.032041,-0.068433,0.010357,0.044258,-0.162418,1,1
1158,29,-0.254128,0.076465,-0.088293,-0.077419,0.073992,-0.041363,-0.105566,0,1
1151,29,-0.299394,0.174584,-0.049228,-0.022871,0.050848,-0.057232,-0.077365,1,1
1134,29,-0.385946,0.168719,-0.035348,-0.000382,-0.103153,-0.066588,-0.079476,1,1
1153,29,-0.341212,0.189561,-0.146493,-0.048044,0.022595,-0.021159,0.026200,1,1
1139,29,-0.286323,0.187957,-0.074949,-0.047675,-0.028907,-0.024456,-0.010343,1,1
1133,29,-0.370857,0.260778,-0.028010,-0.021771,-0.122035,-0.076369,-0.154991,1,1
1132,29,-0.335989,0.244227,-0.058804,-0.070037,-0.025473,0.016191,-0.063925,1,1
1141,29,-0.367814,0.182748,-0.004790,0.030670,-0.061460,-0.128844,-0.071569,1,1
1152,29,-0.251728,0.204303,-0.038939,0.004788,0.034854,0.021023,-0.079487,1,1
1120,29,-0.267369,0.253830,-0.102090,-0.076297,-0.087008,-0.072465,0.004630,1,1
1146,29,-0.279514,0.218194,-0.092867,-0.035692,-0.051880,-0.029954,-0.114374,1,1
1140,29,-0.348815,0.179385,-0.113155,-0.070110,-0.019758,0.023673,-0.039830,1,1
1148,29,-0.334310,0.237356,-0.018340,0.019982,-0.064611,0.042315,0.033690,1,1
1130,29,-0.370455,0.167839,-0.042346,-0.070026,0.037210,-0.005877,-0.043402,1,1
1142,29,-0.350405,0.177542,0.063837,-0.011749,-0.019758,-0.029755,-0.094613,1,1
1156,29,-0.212177,0.073128,-0.038204,-0.062680,0.031200,-0.019142,-0.041538,0,1
1122,29,-0.383401,0.176679,-0.093878,-0.010159,-0.051626,-0.000329,0.031266,1,1
1157,29,-0.273973,0.105513,-0.041873,-0.072063,-0.035028,-0.016557,-0.063339,1,1
1127,29,-0.318087,0.216689,-0.108758,-0.042741,0.021980,-0.064346,-0.110564,1,1
1149,29,-0.265227,0.147155,-0.102157,0.007872,0.069242,0.004754,-0.103607,1,1
1155,29,-0.367659,0.028209,-0.062743,-0.055246,0.009849,-0.021798,0.012447,0,1
1144,29,-0.357568,0.190109,-0.098767,-0.035684,-0.101731,-0.032326,-0.043957,1,1
1137,29,-0.240599,0.237978,-0.062234,-0.078367,-0.070440,-0.041293,-0.084353,1,1
1145,29,-0.338874,0.201120,0.017665,-0.043175,0.007721,-0.025168,-0.024913,1,1
1150,29,-0.300903,0.227582,-0.057637,-0.008072,-0.020888,-0.038273,-0.124039,1,1
1123,29,-0.424831,0.228179,0.002694,-0.010136,-0.094711,-0.054615,-0.086854,1,1
1159,29,-0.343568,0.140705,-0.022989,0.058577,-0.009998,-0.048666,-0.066480,1,1
1125,29,-0.466380,0.139213,-0.115586,0.030164,-0.019784,-0.166453,-0.018087,1,0
1131,29,-0.447269,0.328162,-0.095430,-0.084660,-0.041593,-0.023364,-0.093990,1,0
1143,29,-0.244306,0.147691,-0.037294,-0.046026,-0.063953,0.006109,-0.055049,1,1
1138,29,-0.384379,0.195384,-0.092171,-0.108976,-0.030022,-0.050014,-0.094021,1,1
1124,29,-0.279465,0.223593,-0.160128,0.032816,-0.066916,-0.108719,-0.147931,1,1
1136,29,-0.369564,0.256666,-0.106586,-0.057493,-0.085381,0.042309,-0.050704,1,1
1128,29,-0.419922,0.138829,-0.116170,0.035754,-0.018909,-0.093792,-0.167042,1,1
1147,29,-0.239416,0.329469,-0.016449,-0.117193,-0.059727,0.009365,-0.051713,0,1
1129,29,-0.460102,0.199180,-0.039164,-0.000694,-0.090977,-0.050562,0.003249,1,0
1126,29,-0.328850,0.159983,-0.061305,-0.048239,0.022064,0.009492,-0.151246,1,1
1154,29,-0.231002,0.133809,-0.053582,0.015623,-0.015420,-0.036198,-0.063744,1,1
1135,29,-0.312666,0.137617,-0.057610,-0.086515,-0.013104,-0.054595,-0.092707,1,1
1196,30,-0.213822,0.166752,-0.057811,-0.032906,-0.048138,-0.012287,-0.106870,1,1
1162,30,-0.268419,0.271727,-0.158257,-0.023725,-0.047169,-0.089300,-0.056913,1,1
1173,30,-0.329154,0.134444,-0.038313,-0.038661,-0.087236,0.019456,-0.128326,1,1
1164,30,-0.341219,0.236840,0.003036,-0.042930,-0.050212,0.061630,-0.110156,1,1
1178,30,-0.373223,0.144072,-0.057576,-0.115951,-0.046963,-0.062963,-0.096502,1,1
1194,30,-0.298859,0.309174,-0.071143,0.035629,0.002639,0.084305,-0.044509,1,1
1165,30,-0.318703,0.245445,-0.082578,-0.114856,-0.010999,0.028151,-0.150317,1,1
1189,30,-0.234455,0.178860,-0.070804,0.116584,-0.062437,-0.065190,0.080704,1,1
1197,30,-0.213962,0.100799,-0.034932,-0.021070,0.021687,-0.007308,-0.081188,0,1
1186,30,-0.355231,0.211888,0.019552,-0.026059,0.036881,-0.081464,-0.004410,1,1
1198,30,-0.302792,0.222429,-0.043784,-0.031695,0.049622,-0.000376,-0.142384,1,1
1180,30,-0.349703,0.261820,-0.156488,0.007637,0.076223,-0.086790,-0.134037,1,1
1169,30,-0.295887,0.258394,-0.020671,0.003828,-0.069044,0.010366,-0.091930,1,1
1183,30,-0.223661,0.224289,-0.078512,-0.035268,0.047034,-0.056670,0.027603,1,1
1175,30,-0.307378,0.128288,-0.082539,-0.081335,-0.082147,-0.083534,-0.075450,1,1
1185,30,-0.391273,0.152612,-0.024453,0.029396,0.049382,-0.037346,0.014958,1,1
1188,30,-0.277712,0.141562,0.049200,-0.066398,-0.025648,-0.070835,-0.002241,1,1
1184,30,-0.397144,0.131589,-0.109229,-0.040508,0.025954,-0.019802,-0.000643,1,1
1172,30,-0.503802,0.189101,-0.012559,-0.043403,0.011719,-0.032089,-0.025559,1,0
1193,30,-0.206353,0.119461,-0.044200,0.050626,-0.047898,-0.024703,0.018468,1,1
1190,30,-0.209293,0.214524,-0.039648,-0.053847,0.020378,0.007240,-0.036840,1,1
1195,30,-0.274939,0.207290,0.019467,0.026042,-0.058712,0.053637,-0.048940,1,1
1170,30,-0.264525,0.181000,-0.142657,-0.051316,0.144613,-0.022824,-0.046532,1,1
1174,30,-0.260831,0.234797,-0.013444,-0.081760,-0.020845,-0.053466,-0.141402,1,1
1171,30,-0.377292,0.199253,-0.192969,-0.058768,-0.067313,0.010782,-0.056104,1,1
1160,30,-0.377668,0.189480,-0.103986,-0.043733,0.062071,-0.046671,-0.049347,1,1
1177,30,-0.353982,0.115853,-0.051939,-0.154475,0.001907,-0.085887,-0.122398,1,1
1192,30,-0.170790,0.215850,-0.035732,-0.137371,0.076905,-0.002023,-0.097185,0,1
1199,30,-0.242133,0.116586,-0.083002,-0.055787,0.027775,-0.096091,-0.059737,1,1
1168,30,-0.360398,0.270897,-0.162310,0.022256,-0.071484,-0.011557,-0.088969,1,1
1187,30,-0.274315,0.136436,0.032655,0.018517,-0.063501,0.012680,-0.024604,1,1
1163,30,-0.412318,0.182096,-0.077269,-0.089183,-0.071939,-0.046186,0.066466,1,0
1176,30,-0.356996,0.232061,-0.101259,-0.071769,0.058774,-0.094605,-0.106098,1,1
1167,30,-0.314700,0.088884,-0.094246,-0.074278,0.019239,-0.085893,-0.074400,1,1
1166,30,-0.340235,0.142548,-0.051236,-0.067283,-0.081408,-0.134230,-0.088745,1,1
1179,30,-0.415984,0.212031,-0.042246,-0.122244,0.050041,-0.128431,-0.001975,1,0
1182,30,-0.327879,0.246176,-0.143205,-0.014840,-0.032207,0.019790,-0.121434,1,1
1181,30,-0.293577,0.143050,-0.035569,-0.046031,-0.049961,-0.022093,-0.071622,1,1
1161,30,-0.228023,0.178952,-0.040309,0.005463,0.108884,0.027501,-0.036902,1,1
1191,30,-0.193010,0.179498,0.063297,0.021413,-0.017486,0.039912,-0.054802,1,1
1208,31,-0.261545,0.073842,-0.028448,0.012235,-0.017457,-0.041226,-0.143719,1,1
1223,31,-0.228775,0.156615,-0.051843,0.017427,0.016056,-0.033395,-0.020170,1,1
1203,31,-0.211800,0.223585,-0.140755,0.020008,-0.017736,-0.032125,-0.053468,1,1
1228,31,-0.130549,0.148836,-0.053745,0.050971,0.104578,0.021799,0.024135,0,1
1204,31,-0.302240,0.155831,-0.092877,-0.064502,-0.037957,-0.058043,-0.096283,1,1
1224,31,-0.195747,0.252277,0.077762,-0.002055,0.064038,-0.037647,-0.090891,1,1
1215,31,-0.366087,0.126692,-0.034903,-0.073485,-0.061859,-0.066883,-0.036637,1,1
1206,31,-0.399938,0.152079,-0.048527,0.049103,0.009113,-0.064813,-0.011847,1,0
1238,31,-0.261603,0.209919,-0.048112,-0.060299,-0.013293,-0.161377,-0.121816,1,1
1235,31,-0.242537,0.109689,-0.028068,-0.035275,0.035989,0.004120,-0.012483,1,1
1234,31,-0.244882,0.068302,0.034403,0.018367,-0.106597,-0.024132,-0.024983,1,1
1205,31,-0.357607,0.231518,-0.044336,-0.019429,-0.036167,-0.070807,-0.043065,1,1
1202,31,-0.301114,0.119187,-0.015705,-0.136627,-0.046902,0.007982,-0.026484,1,1
1221,31,-0.187437,0.210441,-0.093561,-0.061495,0.066384,0.019443,-0.049379,1,1
1201,31,-0.280939,0.228828,0.008053,-0.045113,-0.043804,-0.098364,-0.114457,1,1
1216,31,-0.321869,0.241042,-0.050252,-0.038818,-0.095652,-0.102836,0.007549,1,1
1219,31,-0.223468,0.098012,0.036890,-0.061966,-0.007266,-0.047212,-0.060324,1,1
1211,31,-0.269582,0.206479,-0.009824,-0.003892,0.019880,-0.070938,0.037670,1,1
1209,31,-0.328297,0.217106,-0.120938,0.076924,0.055914,-0.015743,-0.090023,1,1
1207,31,-0.200389,0.219966,-0.042628,-0.092980,-0.088078,-0.080948,-0.015087,1,1
1237,31,-0.201086,0.174107,-0.051533,-0.004867,0.006764,-0.023671,0.030193,1,1
1214,31,-0.214041,0.194606,-0.052879,-0.057179,-0.008963,0.007318,-0.094655,1,1
1222,31,-0.136559,0.186648,0.069147,0.178759,-0.024627,-0.009309,-0.028744,0,1
1227,31,-0.212661,0.217178,0.086481,0.008887,0.007119,0.039457,-0.044856,1,1
1218,31,-0.290907,0.228878,-0.107146,-0.051167,0.022597,-0.008165,-0.113181,1,1
1230,31,-0.240048,0.191853,0.028978,-0.004977,0.109156,-0.023194,0.012687,1,1
1239,31,-0.131507,0.183313,0.030892,0.030912,-0.004911,-0.011518,-0.015474,0,1
1213,31,-0.307712,0.169358,-0.030913,-0.032032,-0.044258,-0.018219,-0.108318,1,1
1226,31,-0.253263,0.105519,-0.020643,0.005218,0.018876,-0.034960,0.001400,1,1
1231,31,-0.144917,0.098590,-0.023233,0.041457,0.095969,-0.070368,-0.031884,0,1
1233,31,-0.254295,0.216919,-0.016934,0.022244,0.057895,0.020968,-0.005222,1,1
1236,31,-0.223996,0.225742,-0.011731,0.032991,0.038042,0.057774,-0.032145,1,1
1212,31,-0.277243,0.181673,-0.188563,0.001070,-0.122242,-0.058984,-0.108842,1,1
1220,31,-0.218246,0.114787,-0.004044,-0.008560,0.018374,0.023456,-0.029503,1,1
1229,31,-0.186432,0.159763,-0.067990,0.042713,0.019419,0.062553,-0.045668,1,1
1232,31,-0.206023,0.143724,0.022846,-0.005494,0.045954,-0.040398,-0.081166,1,1
1225,31,-0.176370,0.236689,0.047382,0.041168,0.047435,-0.021076,-0.017739,1,1
1217,31,-0.322638,0.199590,-0.041041,0.045119,0.037943,-0.017720,-0.082794,1,1
1210,31,-0.304224,0.202085,-0.054232,0.027705,0.001014,-0.025640,-0.113423,1,1
1200,31,-0.230763,0.228947,-0.061875,-0.076039,-0.006992,-0.016236,0.003587,1,1
1268,32,-0.278966,0.091010,-0.040945,0.074641,0.010405,-0.020905,0.041783,1,1
1247,32,-0.238125,0.156440,-0.001396,0.044166,0.030548,-0.104906,-0.104111,1,1
1251,32,-0.304138,0.255222,0.004082,-0.043096,-0.023042,0.007750,-0.045465,1,1
1246,32,-0.231121,0.201908,0.002165,-0.003023,-0.001903,0.003799,-0.008312,1,1
1278,32,-0.195950,0.129627,-0.071617,0.049322,0.065215,0.110483,-0.009180,1,1
1259,32,-0.334032,0.225773,0.005314,0.029297,-0.037165,-0.055085,-0.058239,1,1
1248,32,-0.242909,0.168955,-0.088707,0.016451,-0.022788,-0.005390,-0.064500,1,1
1263,32,-0.217972,0.227898,0.056220,0.014545,0.087755,-0.058095,-0.183413,1,1
1279,32,-0.233126,0.171538,-0.040685,0.072101,-0.008354,0.017294,-0.076409,1,1
1267,32,-0.135272,0.196103,-0.125397,0.085581,0.066795,0.041017,-0.053078,0,1
1264,32,-0.204884,0.157086,-0.038983,-0.058547,-0.063859,0.099575,-0.027805,1,1
1258,32,-0.262841,0.147641,-0.113515,0.070130,0.008931,-0.045998,0.010528,1,1
1274,32,-0.206070,0.187472,-0.010283,-0.043010,0.081307,-0.009587,-0.110099,1,1
1257,32,-0.299695,0.149080,0.017602,-0.004918,0.003581,-0.087111,-0.032696,1,1
1256,32,-0.262851,0.152230,-0.077550,-0.018537,-0.103545,-0.011851,0.024329,1,1
1266,32,-0.241472,0.178181,-0.044987,-0.022106,-0.051387,-0.074754,-0.046680,1,1
1277,32,-0.211185,0.206761,-0.093539,-0.065710,-0.069252,-0.069013,-0.049345,1,1
1242,32,-0.376198,0.236973,-0.148446,0.033706,0.023617,0.012592,-0.079094,1,0
1262,32,-0.241005,0.208481,0.078964,-0.047356,0.015900,-0.018713,-0.079284,1,1
1250,32,-0.249961,0.139014,0.006225,0.045395,-0.054198,0.101223,-0.082882,1,1
1243,32,-0.305709,0.231938,-0.091372,0.011576,-0.019995,-0.158097,0.056727,1,1
1276,32,-0.230054,0.147585,-0.008221,-0.003019,-0.045311,0.023088,-0.016761,1,1
1240,32,-0.203421,0.210142,-0.100962,0.031918,-0.018129,-0.037023,-0.150805,1,1
1275,32,-0.248588,0.187759,0.090095,-0.003701,-0.014717,0.056395,-0.107333,1,1
1241,32,-0.347935,0.134787,-0.080758,-0.143516,0.031453,-0.038416,-0.019948,1,1
1249,32,-0.344586,0.177902,-0.053583,-0.065669,-0.020432,0.011550,-0.035866,1,1
1269,32,-0.153413,0.060819,0.025123,-0.072329,0.055643,-0.019214,-0.024780,0,1
1255,32,-0.188840,0.298214,0.032971,-0.002281,0.005152,0.059839,-0.096966,1,1
1273,32,-0.089999,0.244482,-0.009738,-0.023495,0.043126,-0.007928,-0.093676,0,1
1245,32,-0.249670,0.264546,-0.043044,-0.082244,-0.004266,-0.053325,-0.072859,1,1
1261,32,-0.296922,0.204199,0.037795,0.053712,-0.032124,-0.004754,-0.031586,1,1
1272,32,-0.231448,0.108083,0.028876,0.013079,-0.018971,-0.023330,-0.039778,1,1
1244,32,-0.370324,0.098358,-0.012256,0.032219,0.035740,0.010751,-0.087532,1,0
1270,32,-0.221940,0.150797,0.000990,-0.048501,0.085264,0.084194,-0.024074,1,1
1265,32,-0.205857,0.168610,-0.028000,-0.014045,0.056702,0.087280,-0.005843,1,1
1254,32,-0.356648,0.192567,-0.141555,0.057132,-0.002039,-0.104500,0.029084,1,1
1260,32,-0.213355,0.202966,-0.081500,0.069426,0.049560,-0.040425,0.017407,1,1
1271,32,-0.323174,0.127489,-0.115389,-0.055464,0.040982,-0.028078,0.029940,1,1
1253,32,-0.303631,0.213807,-0.064378,-0.008968,0.016992,0.033415,-0.062601,1,1
1252,32,-0.340033,0.175535,-0.045405,0.026452,-0.004363,-0.031531,-0.091466,1,1
1306,33,-0.141123,0.093113,-0.020152,0.027755,0.062255,0.017579,-0.045162,0,1
1290,33,-0.215772,0.159383,-0.104037,0.098339,-0.025634,0.008319,-0.038547,1,1
1286,33,-0.241867,0.236085,-0.011106,0.011164,-0.026506,0.091304,-0.052883,1,1
1293,33,-0.273680,0.214014,0.023645,0.015001,-0.002822,-0.035380,-0.070476,1,1
1314,33,-0.143572,0.154474,-0.097367,0.140331,0.051233,-0.041212,0.002194,1,1
1294,33,-0.237730,0.127197,0.007429,0.008241,-0.070520,0.030559,-0.014626,1,1
1289,33,-0.217750,0.130077,-0.000202,0.109406,0.032907,-0.150448,-0.045757,1,1
1319,33,-0.182693,0.157335,-0.067675,0.025935,0.124271,0.000851,0.102520,1,1
1292,33,-0.157350,0.199073,0.074492,0.025129,0.065734,-0.043387,-0.000480,1,1
1291,33,-0.255894,0.254683,-0.096602,0.087984,0.031187,-0.059998,0.002552,1,1
1285,33,-0.288193,0.279625,0.004355,-0.009207,-0.014857,-0.006366,-0.110919,1,1
1317,33,-0.226768,0.122664,-0.056278,-0.008703,0.030367,0.042997,-0.054503,1,1
1283,33,-0.237107,0.299537,-0.167717,0.020568,-0.110590,0.064450,-0.054276,1,1
1301,33,-0.276918,0.163093,0.028699,0.040446,0.145025,0.014067,-0.169802,1,1
1296,33,-0.231486,0.221648,-0.038677,-0.137035,-0.010497,-0.038142,-0.023020,1,1
1280,33,-0.182675,0.212921,-0.084193,0.006448,0.036583,-0.033804,-0.093389,1,1
1305,33,-0.166493,0.199933,0.035437,0.005342,-0.024240,0.045092,0.050594,1,1
1310,33,-0.198799,0.140545,-0.011370,0.072937,0.094268,-0.002102,-0.092137,1,1
1318,33,-0.198167,0.156172,0.046065,0.036827,0.015624,-0.088489,-0.019102,1,1
1284,33,-0.288380,0.328449,-0.098857,0.011551,0.038958,-0.049730,-0.107182,1,0
1295,33,-0.314088,0.198853,-0.015928,-0.157542,0.041649,-0.054790,-0.002550,1,1
1309,33,-0.217134,0.083162,-0.040926,-0.010811,-0.020936,-0.030300,-0.050034,1,1
1311,33,-0.137825,0.222613,-0.040338,0.009588,0.027476,-0.103886,-0.065818,1,1
1307,33,-0.279711,0.143548,0.039037,0.016372,0.042006,-0.059588,-0.043717,1,1
1298,33,-0.165980,0.073854,-0.030894,-0.016761,0.015315,-0.034832,-0.056982,1,1
1315,33,-0.203393,0.172515,-0.059042,0.012639,0.110500,-0.038779,0.006622,1,1
1303,33,-0.172422,0.141857,-0.003663,0.084756,0.002948,-0.056816,-0.022984,1,1
1299,33,-0.248024,0.154374,-0.047599,-0.001371,0.042704,-0.000537,-0.001205,1,1
1288,33,-0.304629,0.288769,-0.024312,-0.050556,0.020175,-0.035873,-0.074049,1,0
1287,33,-0.275208,0.115209,-0.143948,-0.015968,0.026551,-0.006409,-0.174373,1,1
1304,33,-0.193727,0.183500,-0.027919,-0.021439,0.050722,-0.082219,-0.074007,1,1
1281,33,-0.322699,0.211348,0.146007,0.056646,0.127369,0.017560,-0.097717,1,1
1282,33,-0.332901,0.176730,-0.030885,-0.048601,0.104318,0.027832,-0.096409,1,1
1300,33,-0.105165,0.206190,-0.003494,0.078774,0.030063,0.044627,-0.082231,0,1
1297,33,-0.268883,0.171985,-0.076980,-0.072368,-0.040160,0.012752,-0.058456,1,1
1313,33,-0.253892,0.197473,0.031757,-0.007559,-0.032763,-0.016456,0.009148,1,1
1312,33,-0.191566,0.179976,-0.099711,-0.011321,0.002561,0.027179,-0.087239,1,1
1302,33,-0.265942,0.194281,0.020392,0.018857,0.073645,-0.059653,0.023017,1,1
1308,33,-0.232097,0.213953,-0.060038,0.016539,0.027307,0.055658,-0.014481,1,1
1316,33,-0.164013,0.250168,-0.030647,0.099057,0.023448,-0.013745,-0.096210,1,1
1348,34,-0.203134,0.134563,-0.024717,-0.018556,0.001856,0.014267,0.017409,1,1
1328,34,-0.234596,0.227693,-0.027457,0.008901,-0.019888,0.034193,-0.022698,1,1
1325,34,-0.270349,0.235854,-0.052407,0.059956,-0.030358,-0.072992,-0.007555,1,1
1358,34,-0.211491,0.216108,-0.077693,-0.036762,0.043451,0.051701,-0.070375,1,1
1330,34,-0.250620,0.205972,-0.100155,0.001004,0.085575,0.022400,0.037280,1,1
1334,34,-0.270271,0.209807,0.022223,0.037248,0.018371,0.032522,-0.073421,1,1
1343,34,-0.222638,0.192235,0.024838,0.023481,0.025959,0.035268,0.065393,1,1
1341,34,-0.186301,0.273913,0.014194,0.055566,0.050081,-0.078980,-0.006247,1,1
1324,34,-0.281588,0.195121,-0.013944,-0.002815,0.048050,-0.053269,-0.075759,1,1
1335,34,-0.258389,0.143163,-0.083303,0.036625,0.001257,-0.065447,-0.060858,1,1
1331,34,-0.223854,0.159575,-0.016317,-0.094601,0.008879,0.011766,0.031670,1,1
1340,34,-0.219056,0.102006,0.002506,0.079891,-0.017002,0.022879,-0.027505,1,1
1336,34,-0.271501,0.134508,0.045859,0.028550,0.014879,0.032114,-0.024905,1,1
1351,34,-0.082034,0.204455,-0.113566,-0.043495,0.060476,-0.064057,0.004997,0,1
1359,34,-0.158225,0.175165,-0.011585,-0.038219,-0.013071,0.003315,-0.047873,1,1
1344,34,-0.179288,0.168862,0.034759,0.049413,0.114401,0.001566,-0.037272,1,1
1355,34,-0.170634,0.181729,-0.043597,0.063049,0.032765,0.075006,0.016009,1,1
1342,34,-0.108228,0.217352,0.030542,0.044536,0.036184,0.037341,0.011154,1,1
1322,34,-0.311033,0.202230,0.009246,0.072058,-0.028355,-0.029123,-0.029796,1,1
1326,34,-0.224782,0.165564,-0.039471,0.002492,0.049749,0.061946,-0.007095,1,1
1350,34,-0.204607,0.140588,0.078697,0.072397,0.033561,0.154406,-0.059028,1,1
1339,34,-0.271191,0.196499,-0.043649,0.014143,0.050737,0.012477,0.058542,1,1
1321,34,-0.199824,0.187800,-0.158629,0.023134,0.100335,-0.059241,0.053561,1,1
1333,34,-0.291699,0.304946,-0.036409,0.008479,-0.038222,-0.076320,-0.018855,1,0
1356,34,-0.205922,0.180771,-0.047699,0.012544,-0.058594,0.005635,0.051614,1,1
1332,34,-0.242960,0.224555,-0.020506,-0.022307,0.029029,0.017887,-0.046534,1,1
1347,34,-0.204052,0.141108,0.033356,0.036970,0.104577,0.125493,0.018999,1,1
1353,34,-0.176581,0.213086,0.024894,-0.006840,-0.049515,0.085341,0.008665,1,1
1357,34,-0.238672,0.143730,-0.008477,-0.011589,0.091215,-0.052484,-0.020332,1,1
1352,34,-0.174595,0.157079,-0.024903,0.123689,-0.023759,-0.010114,-0.020569,1,1
1327,34,-0.296650,0.202866,-0.045490,0.048073,0.088283,-0.078647,-0.034536,1,1
1346,34,-0.179330,0.148696,-0.056141,-0.020486,-0.021374,0.085370,0.032880,1,1
1323,34,-0.115468,0.227417,-0.019973,0.063641,-0.014447,-0.105016,0.008496,1,1
1337,34,-0.260867,0.164774,-0.108369,0.043788,0.034409,-0.038080,-0.017036,1,1
1329,34,-0.239624,0.277859,-0.008723,0.035599,0.010377,0.080875,0.005688,1,1
1320,34,-0.263488,0.229791,-0.087091,-0.077600,0.033581,-0.050524,-0.030418,1,1
1354,34,-0.166775,0.139194,-0.101054,-0.054455,-0.024664,0.098468,-0.089579,1,1
1345,34,-0.151674,0.196305,0.004113,-0.011030,0.083601,0.042775,-0.093381,1,1
1349,34,-0.200274,0.190799,0.000519,0.046692,-0.002034,-0.043985,0.056720,1,1
1338,34,-0.234997,0.159690,-0.041745,-0.006764,-0.003137,-0.070990,0.122872,1,1
1360,35,-0.208230,0.235363,-0.066594,-0.023504,0.088941,0.003347,-0.094045,1,1
1373,35,-0.249763,0.221646,-0.019409,-0.013581,0.078994,0.015426,-0.059690,1,1
1363,35,-0.185719,0.264873,-0.016459,0.027748,0.042461,-0.056152,0.029869,1,1
1395,35,-0.238791,0.226407,0.014155,0.018278,0.016814,-0.012194,0.008087,1,1
1382,35,-0.165114,0.288412,-0.021859,0.060922,0.017802,0.084335,-0.066618,1,1
1398,35,-0.212476,0.141593,-0.031741,0.048188,-0.024666,-0.017489,-0.006158,1,1
1399,35,-0.221602,0.189694,0.004212,-0.080757,0.030527,-0.004662,0.031773,1,1
1375,35,-0.313038,0.232956,-0.012782,-0.011372,0.111652,0.032576,-0.032497,1,1
1377,35,-0.219151,0.178726,0.007789,-0.032415,-0.024442,0.061989,0.033472,1,1
1380,35,-0.149290,0.200649,-0.011543,0.031115,0.239701,0.048308,-0.021980,1,1
1397,35,-0.281934,0.189269,0.101495,0.048656,0.035202,-0.001799,0.003191,1,1
1372,35,-0.259087,0.222618,-0.013532,-0.078792,-0.016783,-0.001846,-0.051959,1,1
1393,35,-0.216933,0.150579,0.030578,0.010899,-0.014039,-0.063860,-0.094787,1,1
1389,35,-0.228643,0.086265,-0.012119,0.024727,0.095675,-0.040076,0.017963,1,1
1365,35,-0.264704,0.176218,-0.039049,0.183740,0.114595,0.058894,0.032257,1,1
1367,35,-0.228137,0.269112,0.006198,0.041731,0.080317,0.054791,0.075407,1,1
1369,35,-0.223247,0.114183,0.086383,-0.086969,0.007043,0.007099,0.025746,1,1
1362,35,-0.205244,0.173292,-0.026823,0.009916,0.017825,0.042352,-0.001517,1,1
1384,35,-0.206751,0.178317,0.089308,-0.023009,-0.020985,0.048919,0.003894,1,1
1385,35,-0.235603,0.170426,-0.061286,0.056157,0.052705,0.040443,0.008784,1,1
1378,35,-0.257389,0.243214,0.029446,0.000669,0.057557,0.042701,-0.065874,1,1
1361,35,-0.229265,0.221683,-0.026284,-0.115342,-0.000386,0.044186,0.049771,1,1
1383,35,-0.223674,0.138001,0.023886,0.078606,0.024929,-0.015524,0.045026,1,1
1392,35,-0.198168,0.243261,-0.042701,0.071859,0.073832,0.048374,0.043162,1,1
1387,35,-0.222342,0.144148,0.058410,0.093953,0.118774,0.071396,-0.115668,1,1
1391,35,-0.242597,0.252872,-0.111480,0.102688,0.019437,0.066256,-0.042699,1,1
1381,35,-0.172899,0.173848,-0.097691,0.026434,0.005979,0.033493,0.064739,1,1
1370,35,-0.161213,0.220757,-0.076124,0.036630,0.066593,-0.041747,-0.047068,1,1
1376,35,-0.209183,0.211909,-0.034530,0.004200,0.025663,0.003177,-0.044014,1,1
1366,35,-0.215714,0.216428,0.012167,0.024321,0.101855,-0.072762,-0.068306,1,1
1374,35,-0.159903,0.142119,-0.008689,-0.032106,-0.024784,-0.037028,-0.024946,1,1
1396,35,-0.102506,0.221230,0.019435,-0.053344,0.061492,0.017726,-0.015886,1,1
1364,35,-0.195936,0.234217,-0.082834,0.078173,0.082432,0.027707,0.009522,1,1
1394,35,-0.258155,0.189502,-0.070211,0.041687,0.044743,0.024573,-0.000298,1,1
1379,35,-0.213866,0.222279,-0.122772,0.034692,0.011878,0.040010,-0.071844,1,1
1388,35,-0.189067,0.137472,-0.022532,0.025102,0.050906,0.013152,0.100231,1,1
1386,35,-0.191717,0.079265,-0.043722,0.010478,0.029065,0.028925,0.034170,1,1
1390,35,-0.246966,0.163348,0.005556,0.055590,-0.002552,0.031981,-0.083362,1,1
1368,35,-0.254210,0.188519,0.046226,-0.114836,0.057133,0.081215,0.018595,1,1
1371,35,-0.218482,0.188199,0.004525,-0.025980,0.037546,0.111591,0.095917,1,1
1422,36,-0.245672,0.158557,-0.030445,0.064804,0.069995,0.019740,0.079514,1,1
1433,36,-0.180013,0.166364,0.024379,-0.017202,0.040900,0.006620,0.022517,1,1
1410,36,-0.296221,0.214274,-0.171876,-0.018936,0.022479,0.041364,0.004412,1,1
1400,36,-0.306919,0.243597,-0.005794,-0.019854,0.022433,-0.056473,-0.056905,1,1
1431,36,-0.224395,0.169540,-0.091135,-0.066495,-0.001334,-0.002493,-0.033990,1,1
1416,36,-0.222990,0.211530,-0.013002,0.056256,0.006304,-0.057424,-0.052343,1,1
1427,36,-0.243076,0.112711,0.005260,-0.052200,-0.016114,0.031389,0.001451,1,1
1413,36,-0.305516,0.166686,-0.010313,0.055721,0.013427,0.036818,-0.025272,1,1
1402,36,-0.207908,0.160102,-0.035783,0.095106,0.013881,0.003892,-0.076559,1,1
1430,36,-0.121884,0.184069,-0.105528,-0.064392,0.066565,0.023105,-0.022056,1,1
1425,36,-0.206186,0.148835,-0.042875,-0.084709,0.033023,-0.045785,0.031162,1,1
1411,36,-0.260497,0.184801,-0.026124,-0.005329,-0.034209,-0.023074,-0.077754,1,1
1403,36,-0.151928,0.176524,-0.040082,-0.006336,0.035462,-0.126130,0.046667,1,1
1424,36,-0.157779,0.264616,0.043189,0.061117,0.116882,-0.036008,0.057914,1,1
1412,36,-0.322814,0.197285,0.003283,0.038575,0.077554,-0.013698,0.041742,1,1
1426,36,-0.219327,0.158181,-0.093521,0.077675,-0.056949,-0.028694,0.002502,1,1
1437,36,-0.184435,0.114140,0.016863,-0.014824,0.061458,-0.025111,0.012020,1,1
1423,36,-0.265475,0.228407,-0.014860,-0.000879,0.062293,0.050627,0.020549,1,1
1428,36,-0.178761,0.239377,0.038902,-0.004954,0.003135,0.041653,0.032443,1,1
1429,36,-0.146063,0.209447,-0.083573,0.017077,0.054490,0.031211,-0.016034,1,1
1436,36,-0.152610,0.097717,-0.073864,-0.014575,0.040438,-0.038774,0.034456,1,1
1417,36,-0.274508,0.119393,-0.029189,0.081869,0.064883,-0.067948,-0.083230,1,1
1421,36,-0.206150,0.133021,0.029358,0.009119,0.034232,0.062004,0.041884,1,1
1408,36,-0.233039,0.176365,-0.048249,0.033861,0.006866,-0.019294,0.085748,1,1
1434,36,-0.184714,0.205673,-0.095163,0.082172,0.015489,0.080134,0.030962,1,1
1415,36,-0.259832,0.206268,-0.059324,-0.045018,0.060977,0.052821,-0.138568,1,1
1435,36,-0.199106,0.265172,-0.033165,-0.011115,0.043681,-0.002323,-0.021863,1,1
1401,36,-0.207221,0.124272,-0.071270,-0.020260,0.093196,-0.018813,0.015222,1,1
1438,36,-0.155188,0.126159,0.009222,0.055083,-0.090541,0.031787,-0.044883,1,1
1409,36,-0.213010,0.196060,-0.037729,0.019592,0.058298,-0.002471,-0.023730,1,1
1439,36,-0.174929,0.122302,-0.016106,0.021167,-0.002838,0.016360,0.012291,1,1
1404,36,-0.209229,0.169965,-0.006213,0.132206,0.041510,0.088067,-0.016896,1,1
1420,36,-0.177280,0.099904,-0.005414,0.023389,0.002492,0.027505,-0.009240,1,1
1406,36,-0.204906,0.145591,-0.010329,-0.044636,0.067543,0.013931,0.020671,1,1
1407,36,-0.333790,0.181423,0.003391,-0.008454,0.075750,-0.013101,0.023118,1,0
1414,36,-0.335082,0.239933,0.093955,-0.130139,-0.003540,0.034528,-0.061078,1,0
1405,36,-0.239716,0.168476,-0.036335,0.027214,0.100961,0.062052,-0.007556,1,1
1419,36,-0.098862,0.233466,0.075706,0.057009,-0.035300,-0.051242,-0.010104,1,1
1432,36,-0.166288,0.136847,-0.043847,0.004651,0.008052,0.081939,0.042625,1,1
1418,36,-0.193435,0.188129,-0.089200,-0.040983,0.034447,0.058492,0.067933,1,1
1443,37,-0.293221,0.221195,0.046467,-0.049904,-0.012682,0.025476,0.046746,1,1
1447,37,-0.206739,0.199389,0.053638,-0.030586,-0.069350,-0.004945,0.020261,1,1
1440,37,-0.150002,0.148364,-0.008381,0.052597,0.000691,0.096195,-0.055564,1,1
1449,37,-0.261840,0.233082,-0.010617,0.089942,0.099283,0.045338,-0.115886,1,1
1473,37,-0.180104,0.222869,-0.020347,-0.017209,0.068694,0.046209,-0.022014,1,1
1459,37,-0.185272,0.207194,-0.057824,-0.031530,-0.046100,0.025239,-0.001584,1,1
1444,37,-0.179500,0.143179,0.006207,0.022499,-0.050611,-0.081307,0.059366,1,1
1457,37,-0.249432,0.162521,-0.017650,0.032667,0.012519,0.049986,-0.007605,1,1
1470,37,-0.169283,0.159736,0.019507,0.003367,0.102122,0.092037,-0.014895,1,1
1475,37,-0.133456,0.116880,-0.049291,0.101479,0.001956,0.001669,0.019894,1,1
1452,37,-0.242656,0.107904,-0.047842,0.037236,-0.006993,-0.068151,0.007048,1,1
1477,37,-0.167009,0.096857,0.004391,0.062604,-0.045230,0.043045,-0.050771,1,1
1466,37,-0.202239,0.143130,0.051001,-0.115180,-0.006021,-0.025792,0.006740,1,1
1472,37,-0.229611,0.308931,0.060579,-0.030945,0.141811,0.013035,-0.011640,1,1
1469,37,-0.256700,0.189551,-0.053316,0.045372,0.011772,0.062944,-0.072374,1,1
1456,37,-0.158267,0.159533,-0.029959,0.107913,-0.010539,0.068428,0.009022,1,1
1450,37,-0.180203,0.158407,0.019769,0.011005,0.030583,-0.033205,-0.105299,1,1
1441,37,-0.208037,0.087152,0.034154,0.018878,-0.009769,0.026582,-0.078267,1,1
1467,37,-0.118609,0.182694,0.053339,0.057150,0.117015,0.049441,-0.045029,1,1
1463,37,-0.228841,0.189821,-0.140745,0.035243,0.051972,0.005754,0.068194,1,1
1454,37,-0.164260,0.136686,-0.083215,-0.000956,0.012261,0.045082,0.017585,1,1
1455,37,-0.179799,0.291816,-0.040842,0.057485,0.068477,0.005596,0.023964,1,1
1448,37,-0.178751,0.304802,-0.026905,0.024333,-0.053499,0.096677,0.062286,1,1
1464,37,-0.062294,0.257987,-0.043543,0.025392,0.096028,0.089199,0.023887,0,1
1451,37,-0.306881,0.140253,-0.056633,-0.002143,-0.088515,0.005264,0.068654,1,1
1446,37,-0.224803,0.218271,0.001149,0.103042,0.023664,0.093407,0.017273,1,1
1479,37,-0.070467,0.042380,0.012872,0.019827,0.084884,-0.020617,0.013850,0,1
1460,37,-0.147546,0.253655,-0.081782,0.160207,0.100710,0.124094,-0.009119,1,1
1468,37,-0.230548,0.165819,-0.090673,-0.019593,0.056562,-0.062344,-0.014312,1,1
1458,37,-0.157648,0.175938,0.013024,-0.027917,0.061638,0.028757,-0.010790,1,1
1478,37,-0.134431,0.186203,0.015544,-0.027182,0.029842,-0.057983,-0.035673,1,1
1461,37,-0.187231,0.158218,-0.023903,-0.008464,-0.041199,0.008988,-0.067355,1,1
1462,37,-0.051834,0.183215,-0.061042,0.002874,0.212129,0.085758,0.062668,0,1
1465,37,-0.085453,0.263022,0.059816,0.030249,0.038815,-0.083996,-0.023346,0,1
1474,37,-0.212326,0.110588,0.015661,0.080926,-0.033090,-0.030298,-0.000477,1,1
1476,37,-0.110111,0.199628,-0.034063,0.095031,-0.016089,-0.103962,-0.032160,1,1
1445,37,-0.192454,0.152223,-0.096195,-0.135209,0.056763,0.004445,0.001882,1,1
1453,37,-0.185528,0.294702,-0.024426,0.063835,-0.004197,0.049087,-0.062889,1,1
1442,37,-0.239885,0.205168,-0.114073,-0.004442,0.051178,0.075085,-0.008467,1,1
1471,37,-0.198717,0.228451,-0.003610,0.035947,0.104709,-0.023305,-0.046774,1,1
1510,38,-0.113013,0.179089,0.077273,-0.022091,0.013717,0.049280,0.063755,1,1
1507,38,-0.261775,0.224128,0.027428,-0.017134,0.073173,0.099669,0.028712,1,1
1486,38,-0.225548,0.172621,0.072505,-0.017166,0.116172,0.093509,-0.004331,1,1
1500,38,-0.139272,0.201364,-0.069292,0.067586,0.093784,0.080798,0.023103,1,1
1505,38,-0.124529,0.231321,0.038233,-0.023914,0.121831,-0.053228,-0.053369,1,1
1512,38,-0.073537,0.173348,0.082869,-0.001261,0.088396,0.050603,0.023521,1,1
1506,38,-0.179310,0.136499,-0.013898,0.012981,0.059172,-0.041918,0.061221,1,1
1484,38,-0.188839,0.167898,0.044838,0.062998,0.117613,0.086865,-0.018195,1,1
1493,38,-0.215980,0.253827,-0.052833,0.051238,0.069553,-0.013028,0.029427,1,1
1516,38,-0.099092,0.196201,0.004697,0.005273,0.129255,0.037134,0.018286,1,1
1518,38,-0.124460,0.180614,0.045962,0.015809,0.002831,0.035944,-0.058951,1,1
1495,38,-0.216620,0.182450,0.009176,0.098218,0.034149,-0.012213,-0.052197,1,1
1498,38,-0.187027,0.217893,0.015750,-0.000245,0.144075,0.037526,0.010685,1,1
1501,38,-0.058747,0.151083,0.062330,0.089262,-0.076093,-0.009957,-0.035200,0,1
1490,38,-0.118501,0.193439,0.014317,0.030053,0.103256,0.022338,0.054162,1,1
1514,38,-0.161232,0.208302,0.104880,-0.029005,-0.033530,0.028836,0.011631,1,1
1497,38,-0.122037,0.256602,-0.008921,0.088852,0.072501,0.113873,0.002512,1,1
1496,38,-0.183372,0.252223,0.017783,-0.009792,-0.056685,0.087339,0.001827,1,1
1491,38,-0.281772,0.108098,0.037941,0.022088,0.052572,0.107885,0.030201,1,1
1492,38,-0.264449,0.272398,0.023410,0.041132,-0.032319,0.079488,0.024579,1,1
1519,38,-0.078624,0.159831,-0.071978,0.015439,0.104244,0.072082,0.048547,1,1
1481,38,-0.187017,0.306333,-0.016347,0.033583,0.049700,0.065792,-0.075406,1,1
1488,38,-0.167339,0.149517,-0.033083,0.002012,0.079084,0.032868,-0.001415,1,1
1509,38,-0.212372,0.203932,0.025310,0.027194,0.090430,0.134374,0.050997,1,1
1480,38,-0.156288,0.131224,-0.075508,0.000725,0.097834,0.004760,0.115824,1,1
1515,38,-0.212389,0.229765,0.048445,0.079144,0.054861,-0.012371,-0.067465,1,1
1483,38,-0.219307,0.205348,0.055547,0.043630,0.019570,-0.021983,0.026952,1,1
1485,38,-0.302088,0.239984,-0.113524,0.052474,0.089081,0.076489,-0.015768,1,0
1517,38,-0.195384,0.154568,-0.007420,0.011704,0.012894,0.067427,0.046885,1,1
1513,38,-0.164551,0.208247,0.028101,0.141573,-0.009717,0.046291,0.024645,1,1
1502,38,-0.098844,0.259568,0.056684,0.019341,0.028168,-0.014922,0.042037,1,1
1489,38,-0.242340,0.200213,-0.004970,-0.013860,0.065011,-0.023674,0.021413,1,1
1487,38,-0.278641,0.241881,0.040207,0.111519,-0.045406,0.025946,-0.016797,1,1
1504,38,-0.119716,0.087249,-0.013532,0.045768,0.071457,-0.075033,-0.030607,1,1
1503,38,-0.134827,0.232704,0.007331,0.164179,0.026704,-0.036067,0.031657,1,1
1482,38,-0.168656,0.188053,0.015568,0.113351,0.070603,0.005410,-0.034469,1,1
1508,38,-0.086470,0.171045,-0.004547,0.105465,0.098403,0.007939,0.066904,1,1
1511,38,-0.106940,0.080481,0.060111,0.019909,0.051921,0.040479,-0.040871,0,1
1499,38,-0.309762,0.280541,0.036810,0.072236,0.022979,0.035821,-0.009362,1,0
1494,38,-0.217243,0.261160,-0.063474,-0.043529,-0.017648,-0.049132,-0.023611,1,1
1530,39,-0.181794,0.208352,0.108018,0.021976,0.105444,0.051814,0.005982,1,1
1535,39,-0.322713,0.179037,-0.054516,-0.022702,0.064444,0.077540,-0.016312,1,0
1544,39,-0.130050,0.178700,-0.024203,0.068477,0.075302,0.090082,-0.044613,1,1
1558,39,-0.098333,0.137624,-0.004595,0.036070,0.036912,0.048807,0.044009,1,1
1528,39,-0.235574,0.147757,0.082617,-0.000267,0.025404,-0.050066,-0.083544,1,1
1559,39,-0.165061,0.136808,0.033683,0.069085,0.186097,0.080359,-0.008293,1,1
1522,39,-0.248193,0.197524,0.037160,-0.035629,0.065852,0.038840,0.023584,1,1
1545,39,-0.169297,0.280760,-0.042299,0.075071,0.073325,-0.017652,-0.003814,1,1
1549,39,-0.094722,0.043771,-0.031081,0.091162,0.024907,0.010317,0.090669,0,1
1529,39,-0.177015,0.213392,-0.032664,-0.010631,0.048307,0.095872,-0.007778,1,1
1532,39,-0.229962,0.150081,-0.068045,-0.045404,0.030156,0.054191,-0.028685,1,1
1552,39,-0.155821,0.156723,-0.021197,0.067183,-0.035328,-0.034612,0.031405,1,1
1556,39,-0.198860,0.125537,-0.040961,0.019196,0.062540,-0.039649,-0.007857,1,1
1540,39,-0.125506,0.131200,-0.027215,-0.048325,0.035264,-0.071446,0.051053,1,1
1543,39,-0.165484,0.289476,-0.005534,-0.006300,0.076224,0.102502,-0.019074,1,1
1546,39,-0.164160,0.125703,0.015095,0.040116,0.069476,0.057364,-0.060298,1,1
1524,39,-0.174262,0.222275,-0.007185,-0.089437,0.146042,-0.005718,0.061221,1,1
1538,39,-0.234851,0.225382,-0.021627,-0.032705,0.114380,-0.026612,-0.094109,1,1
1520,39,-0.200477,0.194428,-0.038051,0.019750,0.050392,0.081348,-0.057497,1,1
1553,39,-0.046603,0.184200,-0.061703,0.067454,0.077632,0.064876,0.051857,0,1
1534,39,-0.252126,0.224085,0.055750,-0.038606,0.006107,0.089477,0.009736,1,1
1526,39,-0.297298,0.107212,-0.037489,0.094813,0.032025,0.013649,0.039961,1,0
1548,39,-0.092784,0.114332,0.081955,0.132085,0.110451,0.093502,0.008168,1,1
1547,39,-0.051071,0.125841,-0.011369,0.016808,0.065783,0.083164,-0.019008,0,1
1550,39,-0.119085,0.041769,-0.069867,0.030596,-0.005400,0.079124,0.120902,0,1
1523,39,-0.136475,0.259484,0.013236,-0.019709,0.000431,-0.021199,-0.069046,1,1
1521,39,-0.169105,0.157077,-0.044533,0.037264,0.047589,0.052446,-0.004339,1,1
1536,39,-0.124859,0.167404,-0.007698,-0.014392,0.083261,0.050050,-0.038751,1,1
1539,39,-0.135153,0.127658,-0.049718,-0.067581,0.018220,0.049027,-0.005043,1,1
1537,39,-0.186659,0.200737,0.065210,0.017896,0.050823,-0.068220,-0.032761,1,1
1555,39,-0.115874,0.204271,0.098926,-0.011110,0.041236,0.137688,0.087241,1,1
1525,39,-0.199108,0.120586,-0.091603,0.020396,-0.036884,0.072990,-0.006937,1,1
1542,39,-0.191340,0.172741,0.087047,0.042337,0.093717,0.057952,0.030266,1,1
1527,39,-0.190143,0.242426,-0.066345,0.033138,0.010268,0.033416,-0.020250,1,1
1557,39,-0.048301,0.163440,-0.009210,-0.044909,0.087692,-0.015263,0.010186,0,1
1554,39,-0.175207,0.274314,0.043906,-0.013539,0.122469,0.037720,-0.034864,1,1
1531,39,-0.150764,0.168384,-0.002032,0.050934,0.025921,-0.003360,-0.038786,1,1
1533,39,-0.147218,0.254633,-0.041596,-0.017900,-0.025526,0.001397,-0.043058,1,1
1541,39,-0.084583,0.148532,0.078214,-0.000591,0.032026,-0.012702,0.012994,1,1
1551,39,-0.117367,0.153220,-0.053934,0.026339,0.069225,0.094999,0.048117,1,1
1566,40,-0.147909,0.188713,-0.045387,0.056120,0.071929,0.002906,-0.014614,1,1
1589,40,-0.168827,0.129984,0.011224,0.089899,0.127629,0.015627,0.033298,1,1
1582,40,-0.114696,0.164409,0.020138,0.082031,0.105934,0.071338,0.081273,1,1
1583,40,-0.085550,0.087498,0.052474,-0.010090,0.074972,0.108779,-0.035244,0,1
1564,40,-0.146856,0.153999,0.045602,0.102540,0.121244,0.001526,-0.068860,1,1
1590,40,-0.087579,0.225956,0.085509,0.106805,0.033010,0.073003,0.016745,1,1
1568,40,-0.183945,0.156438,0.073729,-0.096154,-0.039083,-0.027060,0.059270,1,1
1576,40,-0.172916,0.177787,-0.045173,0.065197,0.065672,-0.020012,0.084327,1,1
1587,40,-0.166530,0.191295,-0.043543,-0.024005,0.080139,-0.013757,0.053244,1,1
1570,40,-0.310058,0.133032,0.031874,0.016606,0.048411,-0.010622,0.045790,1,0
1572,40,-0.171530,0.207980,0.011776,0.049710,0.030951,0.085589,-0.071210,1,1
1596,40,-0.066306,0.164508,-0.021516,0.064703,0.114581,0.040355,0.080057,1,1
1565,40,-0.141486,0.129904,-0.044602,0.096296,0.123670,-0.048662,0.004496,1,1
1561,40,-0.275054,0.202149,-0.064758,-0.018498,-0.000087,-0.040562,-0.013420,1,0
1560,40,-0.239132,0.208508,0.093193,0.135965,-0.020920,0.014385,0.043025,1,1
1592,40,-0.087921,0.127655,0.075100,0.024510,0.123529,-0.019058,0.019168,1,1
1599,40,-0.075205,0.153075,0.071342,0.009967,0.091294,0.008603,0.080811,1,1
1580,40,-0.147145,0.076252,-0.085086,0.029276,0.124997,0.009400,-0.027142,1,1
1577,40,-0.205886,0.147110,-0.004475,0.022567,-0.024426,-0.032202,0.012275,1,1
1593,40,-0.063041,0.085180,0.155894,0.090645,0.166634,0.164592,0.119255,0,1
1584,40,-0.072047,0.192114,0.041838,0.107442,0.170126,0.069769,-0.033861,1,1
1563,40,-0.267215,0.229142,0.020214,0.154866,0.115199,-0.007216,0.032865,1,0
1594,40,-0.170574,0.020460,-0.062484,0.086536,0.054731,0.087318,0.015217,0,1
1586,40,-0.141974,0.082965,0.031977,0.010351,0.043788,0.171083,0.079589,1,1
1591,40,-0.095793,0.169307,-0.052553,0.057393,0.102449,0.048518,-0.008977,1,1
1581,40,-0.104268,0.205586,0.070385,0.017869,0.053237,0.019718,-0.032599,1,1
1562,40,-0.217550,0.173429,0.012222,0.066457,0.055047,0.022463,-0.006655,1,1
1588,40,-0.211051,0.084014,-0.030171,0.038249,0.050056,0.130391,-0.004827,1,1
1571,40,-0.289425,0.114386,0.047853,0.002739,-0.010656,0.112173,0.080898,1,0
1595,40,-0.027793,0.170762,0.002215,0.143448,0.089719,0.050676,0.013660,0,1
1598,40,-0.071560,0.114455,-0.032488,0.003599,0.000744,0.072418,-0.022593,1,1
1567,40,-0.074289,0.115791,0.004998,0.083499,0.126750,-0.055717,-0.054843,1,1
1569,40,-0.277382,0.277497,-0.048284,-0.004484,0.037848,0.007440,0.003917,1,0
1579,40,-0.223285,0.190317,-0.006638,0.038520,0.113953,-0.021029,-0.016290,1,1
1573,40,-0.224060,0.116475,-0.056513,0.004625,-0.004834,-0.013660,0.016943,1,1
1575,40,-0.226921,0.207333,0.023301,0.016325,0.005913,0.027173,0.030263,1,1
1585,40,-0.083099,0.153388,-0.070781,0.020664,0.060151,0.014355,0.067375,1,1
1578,40,-0.143743,0.166331,0.047376,0.009059,0.072663,-0.079572,-0.128910,1,1
1597,40,-0.096977,0.147550,0.054247,0.045575,0.128729,0.053895,0.065070,1,1
1574,40,-0.202786,0.217992,0.014103,0.079021,0.037474,-0.017260,-0.001225,1,1
1616,41,-0.117345,0.237355,-0.030479,0.073529,0.030846,0.074012,0.016541,1,1
1638,41,-0.110767,0.276760,-0.041144,0.014782,0.091744,0.109124,0.000764,1,1
1623,41,-0.179879,0.205712,0.024315,0.068855,0.098368,0.121164,0.090978,1,1
1622,41,-0.183180,0.199812,-0.019974,0.107527,0.027169,0.092957,0.118322,1,1
1615,41,-0.205544,0.226258,-0.006153,0.011890,0.112598,-0.033915,0.033760,1,1
1629,41,-0.076622,0.206800,-0.051452,0.061138,0.174884,0.022312,0.045228,1,1
1604,41,-0.240849,0.118593,0.003165,0.035691,0.085280,-0.055091,-0.092122,1,1
1635,41,-0.210688,0.185534,0.010962,0.024006,0.005622,0.029287,0.079687,1,1
1625,41,-0.026719,0.248284,0.014648,0.148524,0.107459,-0.044731,0.035369,0,1
1600,41,-0.147252,0.172900,0.020240,0.034280,0.159616,0.067219,-0.042963,1,1
1639,41,-0.117285,0.108774,0.058056,0.044009,0.167689,-0.059648,0.019813,1,1
1637,41,-0.198858,0.295876,-0.031760,0.094444,0.076317,0.028861,0.035625,1,1
1626,41,-0.100481,0.156567,-0.007225,0.034798,0.070654,-0.021913,-0.074898,1,1
1608,41,-0.233019,0.140884,0.052169,0.076651,0.101562,-0.025424,0.009096,1,1
1603,41,-0.160078,0.127229,-0.017353,0.065828,0.110496,-0.000616,0.002847,1,1
1612,41,-0.198307,0.173042,-0.017696,0.054954,0.029053,0.052940,-0.019342,1,1
1614,41,-0.158526,0.145312,0.020735,0.009519,0.069496,0.046737,-0.075892,1,1
1621,41,-0.142466,0.247477,-0.001912,0.153202,0.067980,-0.018954,0.052063,1,1
1627,41,-0.110072,0.170099,0.047474,0.004582,0.155193,0.056233,-0.047919,1,1
1609,41,-0.145143,0.231280,-0.014579,-0.019873,0.115331,0.027696,-0.038389,1,1
1606,41,-0.205218,0.167034,0.010835,0.090769,0.066765,0.016443,-0.043450,1,1
1602,41,-0.170284,0.246613,-0.027277,0.020721,0.073645,0.109323,0.014359,1,1
1632,41,-0.172013,0.240773,0.002143,-0.019152,0.050434,0.111590,0.028678,1,1
1605,41,-0.190114,0.204599,0.058864,0.054824,0.141862,0.060597,-0.039444,1,1
1633,41,-0.112882,0.167837,-0.025706,-0.045070,0.179586,0.043990,0.063463,1,1
1628,41,-0.102123,0.178830,0.096528,0.089028,0.068736,0.030336,-0.110111,1,1
1619,41,-0.196970,0.189283,-0.008199,-0.001173,0.115460,-0.050084,0.061793,1,1
1613,41,-0.206819,0.199526,0.043905,0.049254,0.106872,0.063035,-0.011852,1,1
1607,41,-0.255952,0.190942,0.061846,0.022784,0.053878,0.037611,-0.007425,1,1
1624,41,-0.071863,0.174436,0.130227,0.044819,-0.015040,-0.057197,0.070218,1,1
1631,41,-0.123240,0.178211,-0.000896,0.060466,0.083401,0.012586,-0.006176,1,1
1610,41,-0.164378,0.231860,0.006381,0.085561,0.096921,0.017977,-0.079244,1,1
1630,41,-0.082098,0.159847,0.021179,0.062570,0.070646,-0.005673,0.144953,1,1
1617,41,-0.128793,0.177936,-0.037989,0.048115,0.034541,0.024216,0.059137,1,1
1601,41,-0.208482,0.192709,-0.055517,0.018297,0.013820,-0.044268,0.004767,1,1
1620,41,-0.108138,0.193575,0.031597,0.053053,0.125176,0.128001,-0.007385,1,1
1634,41,-0.018123,0.049723,0.081747,0.049161,0.155507,0.031360,-0.006405,0,1
1636,41,-0.125153,0.139881,-0.047183,0.070623,0.026967,0.111274,-0.001949,1,1
1618,41,-0.148141,0.247480,-0.040479,-0.061154,0.054551,-0.075914,0.015691,1,1
1611,41,-0.190306,0.283038,0.080310,0.060437,0.065475,-0.007404,0.046462,1,1
1664,42,-0.091924,0.130311,0.042396,0.003437,0.037628,0.079354,0.004672,1,1
1667,42,-0.071649,0.185532,-0.038747,0.067649,0.165446,0.134177,-0.020172,1,1
1646,42,-0.185865,0.241243,0.168308,0.080124,0.019020,0.078343,-0.056724,1,1
1660,42,-0.192660,0.220099,-0.046785,0.198263,0.080906,0.055949,-0.038162,1,1
1675,42,-0.133501,0.140909,0.035280,-0.046246,0.112235,0.044228,0.060538,1,1
1674,42,-0.121539,0.229654,0.104511,0.109609,0.143238,0.107464,0.041553,1,1
1659,42,-0.111963,0.210819,0.077741,-0.031774,0.063784,0.057788,0.020898,1,1
1654,42,-0.159642,0.271792,0.046774,0.054959,0.082672,0.063823,0.064960,1,1
1661,42,-0.195704,0.108210,0.010151,0.051127,0.111417,-0.063127,0.024851,1,1
1657,42,-0.216399,0.283417,-0.020358,0.110222,0.047303,0.040490,0.082511,1,0
1670,42,-0.099520,0.234096,0.010108,0.037090,0.081206,-0.020264,-0.058845,1,1
1642,42,-0.168823,0.197914,0.073122,0.039625,0.029781,-0.023955,-0.027785,1,1
1678,42,-0.146694,0.228315,0.065199,0.057925,0.030244,0.095904,0.121861,1,1
1640,42,-0.158425,0.181153,0.008473,0.019216,0.091460,0.058693,0.062310,1,1
1655,42,-0.225124,0.159140,0.063334,0.089226,0.106041,0.070497,0.022651,1,1
1645,42,-0.166232,0.288895,-0.000513,0.003231,0.117804,0.070201,0.067393,1,1
1663,42,-0.071724,0.168825,-0.006173,0.077228,0.094167,0.060395,0.065340,1,1
1676,42,-0.101250,0.227006,-0.003829,0.030959,0.079205,0.126216,0.038401,1,1
1643,42,-0.152227,0.191430,0.140982,0.122661,-0.018837,0.032936,-0.017403,1,1
1647,42,-0.286801,0.259384,0.068997,0.011600,0.054400,-0.062535,0.046110,1,0
1648,42,-0.154947,0.173391,0.018575,0.112080,0.056314,0.133700,0.041508,1,1
1673,42,-0.109803,0.056974,0.110539,0.011254,0.103794,0.046707,0.052885,1,1
1669,42,0.000384,0.114082,0.073525,0.095882,0.114502,-0.037615,0.046353,0,1
1650,42,-0.125765,0.219321,-0.043432,0.081417,0.028095,0.176636,0.034290,1,1
1653,42,-0.115054,0.265110,0.073372,0.033085,0.069834,-0.015279,-0.029048,1,1
1651,42,-0.133125,0.285547,0.009812,-0.050122,0.061147,0.112759,0.027393,1,1
1644,42,-0.176486,0.244772,0.080514,-0.046508,0.027293,0.172769,0.009504,1,1
1668,42,-0.117588,0.206374,0.027137,0.061954,-0.006598,0.059260,-0.011560,1,1
1672,42,-0.071222,0.227557,0.014356,0.086084,0.055970,0.018585,0.094179,1,1
1649,42,-0.129476,0.240165,0.023973,0.056311,0.101272,-0.041188,0.061429,1,1
1666,42,-0.155252,0.145060,0.030164,0.015981,0.142459,0.092676,0.073685,1,1
1641,42,-0.192458,0.218774,-0.032556,0.066529,0.112935,-0.012186,-0.001418,1,1
1665,42,-0.143601,0.142482,0.040248,0.053241,0.104359,0.055616,0.045175,1,1
1658,42,-0.152904,0.294083,0.018075,0.063457,0.161014,0.029212,0.062230,1,1
1652,42,-0.165247,0.250281,0.011189,-0.090709,0.017599,0.110108,0.123081,1,1
1656,42,-0.100638,0.355759,0.054048,0.012550,0.077911,0.060265,0.027509,1,0
1662,42,-0.118491,0.130883,0.048635,0.175382,0.003381,0.123781,0.047783,1,1
1679,42,-0.099941,0.186486,0.053030,0.037341,0.026925,0.012348,-0.009440,1,1
1677,42,-0.146333,0.136193,0.028111,0.095037,0.003027,0.010970,0.041405,1,1
1671,42,-0.147490,0.218849,0.078191,-0.018661,0.135451,0.187325,0.039238,1,1
1709,43,-0.101463,0.098729,0.112356,0.069559,0.059405,0.154276,0.060498,1,1
1707,43,-0.148244,0.174094,0.064699,0.010905,0.114504,0.180590,0.089064,1,1
1706,43,-0.014470,0.246830,0.094010,0.021517,0.034835,0.031647,0.047286,1,1
1684,43,-0.142457,0.116014,0.019703,0.103955,0.065564,-0.031296,0.027802,1,1
1716,43,-0.040373,0.178370,0.009722,0.093462,0.095145,0.026608,0.019676,1,1
1689,43,-0.250437,0.168885,0.081855,0.038672,0.105488,0.221522,0.002883,1,1
1717,43,-0.054435,0.067413,0.104887,0.111103,0.133294,0.040628,0.047676,0,1
1702,43,-0.053389,0.219316,0.035891,0.002027,0.127097,0.072619,0.046613,1,1
1687,43,-0.143142,0.199375,0.021611,0.061078,0.024671,0.021596,0.019387,1,1
1705,43,-0.117399,0.204082,0.065701,0.007777,0.089095,0.074326,0.031598,1,1
1680,43,-0.074238,0.111441,0.038053,0.098199,-0.002450,-0.075385,0.017811,1,1
1690,43,-0.199569,0.156033,-0.157027,0.046154,-0.003358,0.000109,0.028527,1,1
1693,43,-0.168098,0.232776,0.005847,0.044854,0.051986,0.063997,0.016545,1,1
1713,43,-0.080517,0.068622,-0.000196,-0.028609,0.030440,0.020875,0.081146,1,1
1685,43,-0.168733,0.114298,0.014085,0.125589,0.036840,0.145061,0.057994,1,1
1697,43,-0.224265,0.217984,0.123665,0.045023,0.171051,-0.023887,0.033481,1,1
1704,43,-0.140804,0.154965,0.032409,0.061887,0.123361,-0.004715,0.082807,1,1
1698,43,-0.170709,0.215364,0.065943,0.064670,0.057972,-0.029220,0.067647,1,1
1696,43,-0.085476,0.321941,0.082725,0.002555,-0.070049,0.113797,-0.006923,1,1
1714,43,-0.168267,0.177739,-0.026032,0.019048,-0.016423,0.036986,0.100931,1,1
1694,43,-0.190370,0.258898,0.001539,-0.026053,-0.018760,0.057973,0.070980,1,1
1692,43,-0.194876,0.137043,-0.003588,0.065779,0.070072,0.086827,0.038723,1,1
1688,43,-0.178317,0.184106,0.033281,0.095617,0.119252,0.151636,-0.020794,1,1
1683,43,-0.287832,0.242989,-0.030545,-0.000103,0.081915,0.061624,-0.024969,1,0
1710,43,-0.061968,0.262671,0.115116,0.098160,0.012478,0.023972,0.058307,1,1
1700,43,-0.066819,0.142024,0.107989,0.005554,0.066407,0.058001,0.026150,1,1
1686,43,-0.131629,0.202592,0.085357,0.069373,0.111500,0.082620,-0.073459,1,1
1681,43,-0.163831,0.125356,0.012247,0.066071,0.048000,0.008394,-0.015114,1,1
1695,43,-0.160008,0.171938,0.049685,0.022614,0.148161,0.021389,0.026350,1,1
1691,43,-0.138396,0.245297,-0.033769,0.184535,0.102711,-0.019967,-0.036433,1,1
1699,43,-0.127665,0.243343,0.021027,0.068450,0.021815,0.001955,0.017184,1,1
1718,43,-0.141922,0.152869,0.060717,0.185764,0.092589,0.007503,-0.022818,1,1
1701,43,-0.090567,0.191284,0.039122,0.000031,0.112627,0.001557,0.159013,1,1
1711,43,-0.079030,0.166924,0.035338,0.054383,0.139899,0.062892,0.006308,1,1
1703,43,-0.151351,0.212112,0.026006,0.045862,0.185271,0.096938,0.066544,1,1
1719,43,-0.028371,0.197428,0.125148,0.102455,0.074577,0.044856,0.039308,1,1
1682,43,-0.173140,0.192070,-0.007698,0.039708,0.083654,0.068252,0.097755,1,1
1715,43,-0.112750,0.186103,-0.017021,0.026296,0.167287,0.078544,0.072597,1,1
1708,43,-0.079403,0.114045,-0.052996,0.071918,0.060145,0.060974,0.020875,1,1
1712,43,-0.140760,0.167724,0.013940,0.065238,-0.060230,0.005333,0.007422,1,1
1753,44,-0.114539,0.107528,0.100919,0.044302,0.063066,0.103670,-0.003812,1,1
1742,44,-0.119784,0.193240,0.014514,0.066628,0.051407,0.050286,-0.019602,1,1
1734,44,-0.206691,0.231089,0.076205,-0.052711,0.025100,0.170658,-0.076921,1,1
1750,44,-0.082797,0.065460,0.034753,0.049108,0.140264,0.148877,0.050592,1,1
1720,44,-0.118441,0.141005,0.081632,0.059292,0.098501,-0.001102,-0.017421,1,1
1733,44,-0.077286,0.151282,-0.012060,0.120451,0.183027,0.035322,0.039540,1,1
1744,44,-0.095586,0.217349,0.013701,-0.014901,0.076348,-0.005152,0.026129,1,1
1729,44,-0.037923,0.233161,-0.035034,0.086390,0.041070,0.039642,0.017972,1,1
1738,44,-0.190536,0.313463,-0.014812,0.047993,0.110680,0.063739,0.004777,1,0
1743,44,-0.099102,0.210256,0.012561,0.018428,0.087424,0.106882,0.063104,1,1
1749,44,-0.127071,0.168205,0.062227,0.035360,0.095091,0.115934,0.055552,1,1
1722,44,-0.127791,0.240483,0.000166,-0.026940,0.147421,-0.002016,0.058393,1,1
1724,44,-0.120478,0.192623,-0.047749,0.177270,0.163091,0.114454,-0.015313,1,1
1737,44,-0.155413,0.215628,-0.048766,0.069021,0.142765,0.003075,-0.074782,1,1
1728,44,-0.253773,0.232657,0.064989,0.018916,0.087477,0.004653,0.039946,1,0
1730,44,-0.175117,0.135544,-0.148546,0.007995,0.060205,0.061867,0.077305,1,1
1745,44,-0.191020,0.181210,0.074297,0.125388,0.099804,0.101242,0.071544,1,1
1755,44,-0.150492,0.170638,0.046758,0.028563,0.107176,0.011408,0.037608,1,1
1725,44,-0.167320,0.203063,-0.066246,-0.060131,0.113322,0.043061,0.014270,1,1
1759,44,-0.011241,0.215998,0.106822,0.060865,0.002949,0.030873,0.014923,1,1
1747,44,-0.126997,0.171651,-0.028670,0.039197,0.002959,0.131248,0.102730,1,1
1739,44,-0.163419,0.157691,0.106999,0.091777,0.096867,0.003888,0.058847,1,1
1727,44,-0.164206,0.281545,0.054311,0.033137,0.063563,-0.047302,-0.067984,1,1
1731,44,-0.115843,0.121849,0.134582,0.042690,0.001729,-0.002061,0.094691,1,1
1751,44,-0.035413,0.135580,0.047100,0.059051,0.062712,0.025784,0.091064,1,1
1721,44,-0.229440,0.240690,-0.122001,-0.008796,0.104464,0.002274,-0.010653,1,1
1748,44,-0.184289,0.139299,-0.042477,0.118657,0.070452,0.097535,-0.095565,1,1
1732,44,-0.216107,0.196993,-0.006609,0.090360,0.102034,0.036781,-0.032730,1,1
1757,44,-0.104452,0.120088,0.099551,0.001370,0.090625,0.154652,0.106162,1,1
1758,44,-0.179222,0.104921,0.013133,0.014994,0.118086,0.071083,-0.043297,1,1
1752,44,-0.074436,0.280386,0.044028,0.009965,0.082036,0.068482,0.042630,1,1
1723,44,-0.107403,0.163993,0.123526,0.103441,0.009212,-0.035216,-0.045736,1,1
1736,44,-0.129720,0.276029,-0.001492,0.025569,0.114976,0.043968,0.013054,1,1
1746,44,-0.031175,0.274173,-0.059170,-0.041196,0.074026,0.104301,0.105369,1,1
1740,44,-0.119244,0.173066,0.086819,-0.020156,0.105766,-0.011716,-0.021698,1,1
1741,44,-0.155197,0.221233,-0.036877,0.120422,-0.003132,0.134694,0.101011,1,1
1754,44,-0.126964,0.235887,0.130474,0.070553,0.104815,0.033687,0.049579,1,1
1726,44,-0.142853,0.174703,-0.034576,0.160697,0.029579,0.103275,0.012748,1,1
1735,44,-0.168014,0.195120,0.028906,0.013840,0.088148,0.038967,-0.017404,1,1
1756,44,-0.187767,0.201235,0.047914,0.073526,0.078269,-0.052141,0.006048,1,1
1781,45,-0.069836,0.220507,0.052371,0.065895,0.095978,0.076539,-0.028869,1,1
1794,45,-0.112823,0.199441,0.018371,0.073335,0.045877,0.036040,0.057165,1,1
1771,45,-0.139787,0.198828,0.131690,-0.010537,0.067513,0.150076,0.020428,1,1
1762,45,-0.132805,0.227803,0.066968,0.097551,0.198239,0.040686,-0.000287,1,1
1796,45,-0.142839,0.183669,-0.026124,0.064098,0.085956,0.000663,0.016508,1,1
1760,45,-0.120189,0.103733,-0.001193,0.023173,0.034075,0.054446,0.091230,1,1
1778,45,-0.079066,0.096644,0.020307,-0.007104,0.111417,0.066326,-0.006917,1,1
1790,45,-0.129459,0.158101,0.037717,0.014590,0.032698,0.070570,0.025436,1,1
1782,45,-0.007453,0.206564,0.085480,0.091082,0.056057,0.113716,0.063014,1,1
1784,45,-0.047626,0.181871,0.052269,0.087345,0.090892,-0.003867,-0.001488,1,1
1791,45,-0.102501,0.215976,0.048890,0.089402,0.177347,0.088862,0.050184,1,1
1767,45,-0.185192,0.206638,0.030195,0.041520,0.072461,0.001821,0.031365,1,1
1787,45,-0.134180,0.135840,-0.006961,0.031516,0.107242,-0.013130,0.008333,1,1
1761,45,-0.134934,0.180664,0.014627,-0.025238,0.133032,0.071472,0.013159,1,1
1783,45,-0.154599,0.160213,-0.016434,0.072870,0.113584,0.103274,-0.002567,1,1
1766,45,0.017428,0.230728,0.014918,0.075477,0.191194,0.098911,0.094648,1,1
1786,45,-0.088773,0.229239,0.124182,0.061585,0.100332,0.090727,0.069974,1,1
1777,45,-0.058635,0.172014,0.024839,-0.000241,0.164055,-0.034079,0.009258,1,1
1799,45,-0.154632,0.141239,0.147264,0.124856,0.084415,0.113246,0.032277,1,1
1774,45,-0.092625,0.224050,0.049219,0.155682,0.074314,0.073607,-0.009100,1,1
1776,45,-0.160593,0.214829,0.042720,0.070275,0.201590,0.020528,0.031346,1,1
1797,45,-0.139493,0.238800,0.117292,0.014431,0.048569,0.116429,0.061240,1,1
1789,45,-0.102526,0.227648,0.028567,0.025126,0.060245,-0.007928,0.078254,1,1
1765,45,-0.155364,0.151201,0.100618,0.069953,0.123012,0.129890,-0.015862,1,1
1773,45,-0.110229,0.262960,0.015170,0.048100,0.073468,0.126029,0.040691,1,1
1779,45,-0.118127,0.142799,0.082759,0.092361,0.066949,-0.008551,0.057415,1,1
1775,45,-0.172511,0.205286,0.077203,0.012286,0.050939,0.007618,0.014734,1,1
1788,45,-0.055067,0.192121,0.088572,0.085752,0.031983,0.126662,0.075152,1,1
1785,45,-0.093186,0.128963,0.060696,0.097408,0.090976,0.030102,0.101816,1,1
1768,45,-0.145391,0.138862,0.074281,0.061792,0.131212,0.024444,0.060991,1,1
1770,45,-0.129174,0.099805,0.001261,0.096660,0.173101,0.004813,-0.009160,1,1
1798,45,-0.106686,0.238241,0.026154,0.108422,0.073009,0.060835,0.010507,1,1
1780,45,-0.050240,0.174243,0.104179,-0.052789,0.067922,-0.063986,0.065512,1,1
1769,45,-0.120255,0.208455,0.116958,0.111660,0.045846,0.081597,0.078222,1,1
1793,45,-0.074102,0.043793,0.037329,0.113948,0.047575,0.048686,0.018226,0,1
1764,45,-0.104391,0.257482,0.038316,0.000419,0.041641,0.166246,0.124250,1,1
1763,45,-0.147753,0.177334,0.051238,0.071081,0.162982,0.114633,0.053765,1,1
1795,45,-0.000889,0.287945,0.074209,0.131198,0.000848,0.003332,0.086262,0,1
1772,45,-0.073873,0.158198,0.027733,0.090810,0.043459,0.050110,0.064968,1,1
1792,45,-0.031179,0.169888,0.099346,0.094317,-0.050523,0.096859,0.058941,1,1
1807,46,-0.100569,0.200073,-0.026857,0.043171,0.102794,0.150493,0.090934,1,1
1814,46,-0.133572,0.131175,0.109793,0.078528,0.072499,0.069714,0.016048,1,1
1806,46,-0.129676,0.249215,0.038983,0.074844,0.105404,0.063185,0.069210,1,1
1831,46,0.009868,0.245688,0.041466,0.095801,0.074412,0.105888,-0.035377,1,1
1829,46,-0.069839,0.128809,0.045343,0.084531,0.040294,0.151885,0.076826,1,1
1824,46,-0.015849,0.169850,0.036902,0.126145,0.016105,0.059253,0.108949,1,1
1835,46,-0.014588,0.162063,0.056369,0.042705,0.040776,0.137771,0.041274,1,1
1818,46,-0.071721,0.170223,0.032544,0.093704,0.129326,0.058525,0.054715,1,1
1833,46,-0.087661,0.166735,-0.043761,0.117804,0.168314,0.064529,0.110863,1,1
1812,46,-0.139624,0.125835,0.061007,-0.004438,0.083570,0.122868,-0.016058,1,1
1827,46,-0.038710,0.237418,0.076353,0.025649,0.107219,0.049499,-0.018331,1,1
1820,46,-0.059332,0.182679,0.035348,0.008230,0.088020,0.174580,0.023157,1,1
1811,46,-0.179657,0.129613,0.105233,-0.013384,0.061762,0.036963,0.106430,1,1
1838,46,-0.117668,0.092733,0.130801,0.012561,0.126730,0.171468,0.136284,1,1
1813,46,-0.140585,0.273541,0.009662,0.034076,0.072569,0.073994,0.096007,1,1
1834,46,-0.008543,0.235822,0.055105,0.122522,0.128245,0.107235,0.052075,1,1
1837,46,-0.072999,0.150500,0.056787,0.055883,0.065558,-0.007348,-0.021744,1,1
1823,46,0.019590,0.105446,0.064832,0.074338,0.059188,-0.003192,0.071382,0,1
1817,46,-0.072409,0.172279,0.009574,0.085953,0.133783,0.066756,0.063221,1,1
1810,46,-0.063062,0.139810,0.083923,-0.064831,0.100697,0.073361,0.073200,1,1
1801,46,-0.051031,0.210383,0.039004,0.041685,0.067021,0.116052,0.054247,1,1
1803,46,-0.121820,0.275144,0.086511,0.075948,0.064075,0.124711,-0.040815,1,1
1805,46,-0.070053,0.264836,0.067165,0.138948,0.129684,0.056812,-0.017591,1,1
1802,46,-0.136506,0.215668,0.039702,0.114258,0.074195,0.064335,0.001538,1,1
1804,46,-0.103602,0.198619,0.079314,0.063167,0.065290,0.143503,0.102618,1,1
1819,46,-0.105667,0.120594,0.069566,0.067944,0.115333,0.016348,0.047570,1,1
1828,46,-0.088706,0.200538,0.068651,-0.027850,0.124219,0.140438,-0.047601,1,1
1809,46,-0.096210,0.225550,0.035659,0.112198,0.090817,0.085235,-0.014969,1,1
1826,46,-0.017446,0.127316,-0.029179,0.080647,0.150812,0.084824,0.075312,1,1
1816,46,-0.166495,0.196943,0.047323,0.087066,0.077365,0.051318,0.104918,1,1
1832,46,-0.022104,0.258073,0.024999,0.080775,0.134428,0.114054,0.051159,1,1
1808,46,-0.094618,0.134179,0.010583,0.046155,0.011370,0.091953,0.119739,1,1
1800,46,-0.062882,0.185496,0.030633,0.070883,0.091785,0.019526,0.038804,1,1
1836,46,-0.153532,0.222417,-0.039566,0.058870,0.090068,0.104297,0.070544,1,1
1815,46,-0.121447,0.226902,-0.018871,-0.056753,0.147654,-0.011619,0.081929,1,1
1822,46,-0.110171,0.200795,-0.035587,0.129172,0.183678,0.029856,0.120746,1,1
1830,46,-0.095325,0.087998,0.043244,0.086826,0.035568,0.140906,0.045475,1,1
1825,46,0.016971,0.260641,0.072395,0.153076,0.079819,-0.014656,0.029530,1,1
1821,46,-0.057934,0.245118,-0.002432,0.116452,0.165332,0.071485,0.112283,1,1
1839,46,-0.054064,0.231844,0.069335,0.131898,0.026422,0.096004,0.104648,1,1
1848,47,-0.116986,0.208205,0.124483,0.053346,0.061928,-0.049879,-0.009023,1,1
1867,47,-0.142100,0.239152,0.052002,0.114660,0.107923,0.072697,0.001202,1,1
1853,47,-0.123868,0.207986,0.005534,0.091630,0.088913,0.127713,-0.008216,1,1
1858,47,-0.121992,0.165431,0.022502,0.098112,0.118322,0.035584,-0.004733,1,1
1841,47,-0.027741,0.214945,-0.030240,0.113219,0.071519,-0.014499,-0.014436,1,1
1860,47,-0.054094,0.212966,0.099451,0.019345,0.130623,0.091163,0.076969,1,1
1863,47,-0.065217,0.166307,0.072719,0.102039,0.117505,0.071687,0.006328,1,1
1868,47,-0.076966,0.209621,0.117555,0.084883,0.072638,0.010656,0.048262,1,1
1875,47,-0.031000,0.201525,0.034502,0.124868,0.114908,0.018866,-0.022968,1,1
1876,47,-0.078179,0.173083,0.225079,0.106593,0.171754,0.088179,0.069726,1,1
1854,47,-0.179653,0.206481,-0.016168,0.040209,0.129253,0.198724,0.100116,1,1
1873,47,0.057233,0.222172,0.017061,0.100037,0.105732,0.131479,-0.023898,0,1
1846,47,-0.045437,0.244956,0.031414,0.077023,0.082966,0.068549,-0.021975,1,1
1840,47,-0.050181,0.221599,0.090902,0.071981,0.107468,-0.036292,0.069947,1,1
1878,47,-0.074048,0.262932,0.069943,-0.002405,0.128675,0.108101,-0.026080,1,1
1864,47,-0.128201,0.216072,0.049665,0.142836,0.101279,0.095781,0.016210,1,1
1845,47,-0.118531,0.152835,0.062395,0.096246,0.055452,-0.005261,0.007698,1,1
1856,47,-0.212274,0.202308,0.166559,0.027891,0.192218,0.129801,0.131829,1,0
1865,47,-0.059747,0.188927,0.152469,0.103392,0.055626,-0.025537,-0.028325,1,1
1869,47,-0.104917,0.225496,0.065530,0.099388,0.117379,0.156412,0.153884,1,1
1855,47,-0.180981,0.128021,0.075002,0.123887,0.070431,0.041704,0.060171,1,1
1862,47,-0.095229,0.156680,0.098581,0.167944,0.054765,0.113936,0.128266,1,1
1866,47,-0.038108,0.125034,0.081154,0.046381,0.106625,0.022392,-0.007262,1,1
1874,47,-0.083736,0.079268,0.222407,0.049084,0.091663,0.057551,0.036307,1,1
1877,47,-0.018321,0.208392,0.070162,0.056866,0.214047,0.115071,-0.007262,1,1
1870,47,-0.077642,0.179455,0.096878,0.071950,0.074638,-0.006482,0.114678,1,1
1842,47,-0.063762,0.131953,0.052478,0.088850,0.063436,0.055694,0.050534,1,1
1857,47,-0.155242,0.106165,0.107405,0.028445,-0.008642,0.079443,0.088666,1,1
1879,47,-0.094256,0.227705,0.136749,0.152406,0.135450,0.128796,0.015699,1,1
1847,47,-0.059237,0.177501,0.075084,0.073590,0.070044,0.089114,0.074217,1,1
1851,47,-0.137995,0.189273,0.032431,0.081076,0.076696,0.040368,0.017121,1,1
1859,47,-0.036109,0.240676,0.130823,0.025942,0.158200,0.125168,0.067995,1,1
1844,47,-0.100988,0.226928,-0.026312,0.106669,0.089232,0.042836,-0.065633,1,1
1852,47,-0.143221,0.231662,0.009349,0.043295,0.144896,0.089291,0.056772,1,1
1850,47,-0.118659,0.227383,0.126776,0.145980,0.109376,0.142553,0.056032,1,1
1872,47,-0.152317,0.113649,0.000236,0.148160,0.093737,0.025091,0.072017,1,1
1843,47,-0.113495,0.065724,0.083942,0.066926,0.160392,-0.006508,-0.006178,1,1
1849,47,-0.072755,0.157508,0.078872,0.053328,0.005393,0.099142,0.081252,1,1
1861,47,-0.109215,0.161584,0.060564,0.037448,0.156859,0.049442,0.068684,1,1
1871,47,-0.065305,0.132954,0.102867,0.094513,0.195490,0.084502,-0.013192,1,1
1913,48,-0.058547,0.120895,0.092807,0.059943,0.070954,0.010167,0.059672,1,1
1880,48,-0.069810,0.268273,0.028313,0.105098,0.054227,0.019063,0.023628,1,1
1898,48,-0.187575,0.255145,0.017416,-0.004369,0.048230,0.060612,0.078577,1,0
1882,48,-0.129866,0.099985,-0.004707,0.069252,0.139873,0.071127,0.027141,1,1
1910,48,0.009388,0.202676,0.162705,0.057409,-0.002795,0.049306,0.001452,1,1
1895,48,-0.074145,0.219058,0.143829,0.086952,0.171626,0.096461,0.019851,1,1
1912,48,-0.005437,0.221925,0.047082,0.009730,0.125344,0.125853,0.090300,1,1
1919,48,-0.100019,0.164942,0.096000,0.049310,0.113945,0.027383,0.040988,1,1
1883,48,-0.162559,0.256371,0.036444,0.065135,0.100627,0.035915,-0.007459,1,1
1890,48,-0.040856,0.214137,0.083068,0.033193,0.128161,0.097721,0.036997,1,1
1896,48,-0.075705,0.176522,0.014965,0.098645,0.096067,0.113456,0.022601,1,1
1901,48,-0.063402,0.125779,0.062847,0.114113,0.058499,0.120690,0.054314,1,1
1909,48,-0.078175,0.136582,0.037095,0.197595,0.161736,0.121607,0.148817,1,1
1904,48,-0.085455,0.131287,0.128577,0.064680,0.050355,0.121469,0.116583,1,1
1881,48,-0.124718,0.177934,0.097213,0.075417,0.033015,0.038933,0.059092,1,1
1907,48,-0.066407,0.096981,0.004012,0.079163,0.036795,0.119244,0.041087,1,1
1888,48,-0.061029,0.189531,0.010269,0.001832,0.066348,0.071501,-0.013190,1,1
1899,48,-0.078216,0.166439,0.074402,0.031873,0.106486,0.131435,0.022143,1,1
1903,48,-0.038899,0.156110,0.077890,0.108485,0.128730,-0.013306,0.059353,1,1
1900,48,0.058231,0.159818,0.023256,0.065243,0.139953,0.100309,0.027211,0,1
1885,48,-0.179491,0.271715,-0.006939,0.038337,0.043326,0.041994,0.100230,1,0
1905,48,0.007921,0.171107,0.099393,0.096063,0.176917,0.119658,0.072740,1,1
1914,48,-0.009828,0.234666,0.102700,0.002774,0.143199,0.054886,0.015515,1,1
1918,48,-0.060868,0.121657,0.083511,0.127096,0.075410,0.079008,0.075985,1,1
1917,48,-0.009729,0.206176,0.179153,0.014628,0.134004,0.090283,0.023288,1,1
1902,48,-0.088124,0.182441,0.060655,0.098803,0.079357,0.126080,-0.008600,1,1
1915,48,0.009245,0.166452,0.084018,0.160987,0.027599,0.117957,0.005714,1,1
1911,48,0.012492,0.199222,0.096301,0.051368,0.094401,0.036040,-0.017379,1,1
1884,48,-0.066592,0.113782,0.092831,0.006689,0.105747,0.074375,0.049391,1,1
1893,48,-0.125861,0.194177,0.002902,0.114469,0.100845,0.060612,0.084600,1,1
1892,48,-0.113734,0.165304,0.156400,0.023630,-0.010585,0.082500,0.056290,1,1
1916,48,-0.018628,0.079517,0.044870,0.107892,0.137893,0.184211,0.056343,1,1
1908,48,-0.090546,0.171479,0.105060,-0.006859,0.121131,0.064571,0.017172,1,1
1894,48,-0.071972,0.152750,0.110553,0.037713,0.166963,0.089923,0.057133,1,1
1897,48,-0.055331,0.151802,-0.002630,0.024035,0.207638,0.077186,0.081689,1,1
1886,48,-0.085143,0.222002,0.091007,0.063132,0.093286,0.056248,0.039349,1,1
1891,48,-0.070245,0.247798,0.076767,0.059662,0.125065,-0.022831,0.090782,1,1
1906,48,-0.024382,0.068871,0.095642,0.055321,0.089846,0.089458,0.140208,1,1
1889,48,-0.090806,0.256013,0.047852,0.068030,0.119736,0.109256,0.018287,1,1
1887,48,-0.058090,0.200343,0.036163,0.059485,0.006842,0.087020,0.103926,1,1
1954,49,-0.029137,0.194762,-0.034319,0.136417,0.101040,0.142320,0.035895,1,1
1946,49,-0.013432,0.188318,0.063314,0.112403,0.202033,0.109074,0.115057,1,1
1942,49,-0.058164,0.180326,0.110171,0.090898,0.098458,0.059802,0.119672,1,1
1924,49,-0.088953,0.245981,0.119294,0.004801,0.165096,0.108141,0.059959,1,1
1943,49,-0.090821,0.182197,0.007740,0.071763,0.171755,0.135236,0.044344,1,1
1936,49,-0.143344,0.166655,0.073355,0.052540,0.097670,0.057302,0.008456,1,1
1920,49,-0.079091,0.204100,0.076957,0.075359,0.049039,0.070280,0.097530,1,1
1931,49,-0.028020,0.113414,0.096851,0.047401,0.176833,0.157106,0.012979,1,1
1928,49,-0.011161,0.295032,0.043459,0.041401,0.055007,0.043226,0.082474,1,1
1922,49,-0.139924,0.290932,-0.095541,-0.003302,0.127296,0.113223,0.109222,1,0
1955,49,-0.072117,0.200547,0.089606,0.071412,0.124883,0.140108,0.081674,1,1
1935,49,-0.041767,0.241512,0.087234,0.078692,0.151620,0.084599,0.100239,1,1
1945,49,-0.112702,0.177988,0.032876,0.096228,0.132386,0.135763,0.102845,1,1
1926,49,-0.108499,0.209262,0.063170,0.045632,0.147948,0.084279,-0.016642,1,1
1959,49,-0.035182,0.110736,0.057869,0.118213,0.123191,0.047403,0.074345,1,1
1951,49,0.053554,0.202158,0.064401,-0.004047,0.143564,0.050316,0.037710,1,1
1940,49,-0.065032,0.221502,0.087159,0.081660,-0.002169,0.094949,0.114522,1,1
1939,49,-0.027984,0.217015,0.002237,0.073089,0.081881,0.115210,0.129634,1,1
1957,49,-0.081893,0.197561,0.066795,0.079646,0.076094,0.054700,0.071544,1,1
1948,49,-0.054480,0.250701,-0.015734,-0.029731,0.176267,0.127015,0.055295,1,1
1944,49,0.053160,0.140490,0.115652,0.114372,0.174588,0.098309,0.041785,0,1
1930,49,-0.151561,0.266422,0.042739,0.091250,0.128550,0.072175,0.064235,1,1
1956,49,0.031841,0.149671,0.028190,0.113830,0.148310,0.090956,0.112943,1,1
1927,49,-0.073446,0.200869,0.006892,0.173869,0.138318,-0.031199,0.080458,1,1
1929,49,-0.006895,0.213639,0.089288,0.036361,0.165413,-0.027011,-0.025333,1,1
1953,49,-0.154023,0.138386,0.005674,0.098401,0.026067,0.011887,0.076023,1,1
1952,49,0.027941,0.169193,0.064726,0.016252,0.041425,-0.031126,0.072642,1,1
1921,49,-0.174151,0.198888,0.076835,0.159398,0.186570,0.076099,0.132564,1,1
1932,49,-0.000276,0.161572,0.008090,0.118787,0.155649,0.099290,-0.020525,1,1
1934,49,-0.101485,0.198432,0.031795,0.076490,0.111394,0.095898,0.095551,1,1
1958,49,0.027867,0.189462,0.082277,0.112340,0.144901,0.092984,0.136635,1,1
1925,49,-0.114179,0.225391,0.024513,-0.013915,0.177639,0.055591,-0.025705,1,1
1941,49,-0.058289,0.144873,-0.090366,0.096542,0.101351,0.154681,0.071433,1,1
1949,49,0.023714,0.136275,0.079055,0.012744,0.079092,0.128560,0.072618,1,1
1947,49,-0.022233,0.221601,0.014016,0.081345,0.045555,0.080168,0.061110,1,1
1923,49,0.012637,0.217000,0.118705,0.067904,0.086701,0.100082,0.008771,1,1
1937,49,-0.140380,0.181011,0.029599,0.136469,0.155144,0.095794,-0.031369,1,1
1950,49,-0.115234,0.168062,0.045691,0.086772,0.137659,0.036879,0.008289,1,1
1933,49,-0.177728,0.318825,-0.060620,0.091964,0.028987,0.058708,-0.009411,1,0
1938,49,-0.125802,0.117659,0.158901,0.124237,0.045680,0.113866,0.069848,1,1
1992,50,-0.110900,0.204959,0.039396,0.098825,0.244521,0.135830,0.079994,1,1
1972,50,-0.104414,0.225434,0.026250,0.099486,0.098319,0.038109,0.074030,1,1
1998,50,-0.084699,0.180919,0.060021,0.015963,0.214661,0.178753,0.044013,1,1
1980,50,0.018255,0.186239,0.003904,0.081740,0.011651,0.045279,0.150714,1,1
1981,50,-0.050461,0.186281,0.084519,0.072493,0.191989,0.082597,0.095994,1,1
1984,50,0.083187,0.183949,0.070522,0.103631,0.147969,0.026302,-0.031397,0,1
1989,50,0.010647,0.204368,0.140472,0.073427,0.097736,0.091869,0.053281,1,1
1994,50,0.065094,0.090016,0.100937,0.070630,0.083661,0.011263,0.124005,0,1
1991,50,0.020189,0.312017,-0.005516,0.005657,0.073909,0.099770,0.076986,0,1
1997,50,-0.034722,0.063349,0.048343,0.118203,0.035181,0.115397,0.039423,1,1
1988,50,-0.025811,0.181646,0.167489,0.003546,0.022351,0.084041,0.101438,1,1
1966,50,-0.086510,0.172121,-0.003743,0.095089,0.003511,0.065124,0.091094,1,1
1971,50,-0.112521,0.137605,0.038718,0.080878,0.080174,-0.004249,0.053601,1,1
1967,50,-0.084760,0.249248,0.134533,0.107329,-0.005517,0.082074,0.074728,1,1
1977,50,-0.047150,0.168744,0.072284,0.034143,0.121868,0.130765,0.059835,1,1
1968,50,-0.006454,0.172965,0.089319,0.055120,0.117464,0.064723,0.071149,1,1
1982,50,0.022863,0.222147,0.025565,0.252339,0.123936,0.084753,0.038963,1,1
1963,50,-0.044693,0.227843,0.106946,0.075108,0.079520,0.124443,0.097327,1,1
1990,50,0.044822,0.264735,0.162742,0.122285,0.098591,0.045237,0.002608,1,1
1995,50,0.029656,0.139231,0.042439,0.132244,0.175794,0.104945,0.061141,1,1
1962,50,-0.027854,0.209232,0.003119,0.160759,0.082055,0.193648,0.072038,1,1
1970,50,-0.091523,0.174393,0.026320,0.110142,0.140566,0.165208,0.119411,1,1
1969,50,-0.068105,0.180040,0.060971,0.099179,0.095963,0.104818,0.158965,1,1
1986,50,-0.067321,0.211963,0.077551,0.162545,0.131527,0.148479,0.168356,1,1
1976,50,-0.077837,0.236183,0.119688,0.066032,0.120984,0.049401,0.003922,1,1
1985,50,0.037530,0.376331,0.046970,0.082633,0.074051,0.156146,-0.049545,0,1
1996,50,-0.048142,0.200733,0.034233,0.068215,0.106614,-0.017886,0.042257,1,1
1993,50,0.025103,0.173735,0.100928,0.059070,0.069351,0.077365,0.167082,1,1
1979,50,-0.062539,0.184734,0.014841,0.139342,0.135036,0.165440,0.006930,1,1
1965,50,-0.158895,0.176872,0.082419,0.061961,0.091771,0.051472,0.046292,1,1
1983,50,-0.003698,0.199241,0.114270,0.142976,0.194143,0.068262,-0.007678,1,1
1974,50,-0.111372,0.154309,0.007214,0.096698,0.169448,0.236754,0.049727,1,1
1975,50,-0.088097,0.184979,0.125566,0.060287,0.018194,0.092874,0.078482,1,1
1964,50,-0.108131,0.207521,-0.045422,0.069148,0.133168,0.048587,-0.027775,1,1
1973,50,-0.061517,0.194628,0.101689,0.015214,0.163516,0.161141,0.170451,1,1
1960,50,-0.148093,0.138052,0.023762,0.111129,0.097245,0.082362,-0.006474,1,1
1987,50,0.002325,0.161174,0.061362,0.153306,0.081508,0.155294,0.064441,1,1
1961,50,-0.095395,0.147803,0.094492,0.166940,0.101774,0.111387,0.128135,1,1
1978,50,-0.014127,0.174763,0.047495,0.029098,0.063988,0.015264,0.144195,1,1
1999,50,-0.211296,0.096939,0.126061,0.030034,0.058576,0.055582,0.112137,0,1
2020,51,0.038284,0.087007,0.063263,0.009559,0.131152,0.158069,0.122700,0,1
2017,51,-0.085989,0.101694,0.139379,0.087897,0.118799,0.145142,0.089064,1,1
2005,51,-0.020430,0.183910,0.040415,0.046256,0.106171,0.127090,0.053667,1,1
2035,51,-0.062598,0.157178,0.015192,0.048305,0.183203,0.113133,0.078311,1,1
2016,51,-0.152135,0.201945,0.041685,0.090586,0.174574,0.059132,0.072558,1,1
2015,51,-0.042008,0.181340,-0.018795,0.106194,0.047330,0.075054,0.114538,1,1
2013,51,-0.145919,0.193104,0.009570,0.119598,-0.010117,0.143169,0.178762,1,1
2034,51,-0.087599,0.143423,0.071718,0.110655,0.212811,0.205811,0.066819,1,1
2038,51,-0.038293,0.168779,0.083247,0.017549,0.045630,0.069380,0.130165,1,1
2007,51,-0.039016,0.176140,0.108120,0.001328,0.155790,-0.010254,0.095511,1,1
2028,51,-0.031586,0.202792,0.073522,0.053859,0.142861,0.119873,0.114358,1,1
2011,51,-0.052625,0.122254,0.168048,0.084832,0.200270,0.132935,0.056685,1,1
2037,51,-0.021488,0.131480,-0.008862,0.022741,0.025225,0.042793,0.069191,1,1
2033,51,-0.021544,0.120263,0.018487,0.052720,0.123651,0.133814,0.023760,1,1
2031,51,0.005439,0.189830,0.081584,0.086410,0.231246,0.162353,0.068952,1,1
2009,51,-0.056445,0.262531,0.157769,0.075866,0.176057,0.133890,0.076272,1,1
2003,51,-0.106761,0.151733,0.133274,-0.005107,0.157224,0.099621,0.044995,1,1
2032,51,0.004014,0.189190,0.019181,0.143314,0.070621,0.036675,0.095938,1,1
2014,51,-0.115159,0.113359,0.029436,0.144525,0.093522,0.108173,0.067490,1,1
2025,51,-0.028811,0.255613,0.073326,0.118511,0.115016,0.153985,0.059024,1,1
2019,51,-0.092182,0.261911,0.153513,0.085471,0.030409,0.089118,0.128765,1,1
2012,51,-0.126272,0.141396,-0.004191,0.060344,0.138169,0.134734,0.040960,1,1
2021,51,0.007011,0.185538,0.020060,-0.006377,0.112576,0.016222,0.065381,1,1
2022,51,0.019242,0.203770,0.031895,0.102987,0.101627,0.117675,0.049157,1,1
2023,51,-0.014600,0.159925,0.060949,0.030831,0.132336,0.015180,0.153280,1,1
2039,51,-0.031877,0.174817,0.066097,0.169649,0.107927,0.090509,0.031179,1,1
2030,51,-0.057757,0.159194,0.098958,0.082048,0.026869,0.114262,0.076431,1,1
2024,51,0.045439,0.177186,-0.025717,0.087284,0.076444,0.159462,0.062045,1,1
2004,51,-0.040559,0.114383,0.044688,0.118317,0.024768,0.154285,0.067707,1,1
2001,51,0.034826,0.209058,0.032494,0.107730,0.063681,0.084500,-0.058617,1,1
2000,51,-0.031845,0.280396,0.082925,0.066339,0.159264,0.149349,0.040436,1,1
2026,51,0.019105,0.081382,0.077503,0.125030,0.093192,0.029951,0.159322,1,1
2029,51,-0.059925,0.241888,0.076424,0.066309,0.150940,0.160072,0.056833,1,1
2036,51,-0.017262,0.116478,0.067648,0.117559,0.084428,0.110306,0.032426,1,1
2010,51,-0.056497,0.242096,0.046703,0.115128,0.134667,0.106108,0.106663,1,1
2008,51,-0.066682,0.242890,0.079901,0.073364,0.039478,0.117028,0.141488,1,1
2018,51,-0.038581,0.184335,0.013295,0.025252,0.098416,0.026481,0.089049,1,1
2002,51,-0.148503,0.142721,0.031865,0.101823,0.141534,0.069629,-0.007651,1,1
2027,51,0.040060,0.173729,0.087913,0.091406,0.099842,0.038540,0.030345,1,1
2006,51,-0.062770,0.168692,0.127847,0.140579,0.092551,0.081943,0.094914,1,1
2041,52,-0.042490,0.182822,0.129935,0.027191,0.014169,0.057748,0.058143,1,1
2061,52,-0.089566,0.098185,0.146580,0.085292,0.079581,0.090251,0.144155,1,1
2040,52,-0.031385,0.159105,0.107305,0.088747,0.015987,0.183903,0.008537,1,1
2064,52,-0.012234,0.126290,0.012514,0.086821,0.178876,0.051448,0.100544,1,1
2051,52,-0.049517,0.160319,0.030742,0.012290,0.176148,0.083022,0.051389,1,1
2071,52,-0.015526,0.139165,0.086511,0.075551,0.058329,0.072792,0.043107,1,1
2072,52,-0.002380,0.216361,0.115522,0.054906,0.192886,0.118119,0.174906,1,1
2046,52,-0.198702,0.264177,0.043225,0.161371,0.132611,0.107280,0.036600,1,0
2074,52,0.047305,0.204231,0.110333,0.188802,0.103847,0.070195,-0.006642,1,1
2075,52,-0.083072,0.196043,0.075409,0.082538,0.039150,0.043134,0.017395,1,1
2058,52,-0.058040,0.176817,0.134001,0.112648,0.085643,0.125000,0.099227,1,1
2065,52,-0.152968,0.129593,0.028348,0.077895,0.012260,0.092227,0.026501,1,1
2077,52,-0.012747,0.238578,-0.068697,-0.012989,0.111824,0.058240,0.093745,1,1
2050,52,-0.041930,0.091828,-0.001624,-0.050299,0.102095,0.104093,-0.037695,1,1
2047,52,-0.077216,0.158324,0.060136,0.090979,0.156561,0.146422,0.062085,1,1
2073,52,-0.009244,0.232123,0.043388,0.049296,0.111414,0.086419,0.076596,1,1
2044,52,-0.136143,0.234660,0.092292,0.046010,-0.023208,0.154176,0.050496,1,1
2076,52,-0.036273,0.125587,0.038727,0.067433,0.240021,0.082142,0.100455,1,1
2063,52,-0.047055,0.266881,0.009179,0.103141,0.105495,0.068108,0.145582,1,1
2048,52,0.068308,0.099393,0.030962,0.105841,0.199641,0.059374,0.061241,1,1
2057,52,0.004952,0.098003,-0.021331,0.080816,0.077083,0.058716,0.067950,1,1
2053,52,-0.046775,0.239237,0.017064,0.079434,0.112092,0.077865,0.009567,1,1
2045,52,-0.042257,0.220273,0.116330,0.059982,0.125531,0.043160,0.124389,1,1
2062,52,0.024318,0.150653,0.093206,0.085863,0.137500,0.115410,0.036901,1,1
2069,52,-0.010029,0.179117,0.080128,0.133748,0.098260,0.009938,0.067452,1,1
2079,52,-0.068554,0.100599,0.118730,0.142374,0.104509,0.101131,0.107631,1,1
2078,52,0.047152,0.172019,0.087052,0.097653,0.120119,0.144330,0.105395,1,1
2056,52,-0.080282,0.194904,0.088581,0.097649,0.167213,0.064523,0.093250,1,1
2043,52,-0.063760,0.246542,0.066459,0.143283,0.047902,0.161580,0.104028,1,1
2070,52,-0.043383,0.126563,0.044768,0.112488,0.051855,0.159485,0.083796,1,1
2055,52,0.002294,0.178598,0.084841,0.064609,0.097497,0.018954,0.138018,1,1
2049,52,-0.037869,0.201779,0.029370,0.136981,0.100535,0.105939,0.070196,1,1
2059,52,-0.080753,0.162556,0.035253,-0.020812,0.101295,0.122412,0.089066,1,1
2067,52,0.054093,0.137528,0.083830,0.032317,0.081289,0.096069,-0.006930,1,1
2052,52,-0.076580,0.229719,0.031913,0.110981,0.081508,0.153296,0.108503,1,1
2042,52,-0.093821,0.159707,0.007425,0.107023,0.137821,0.116937,0.101491,1,1
2066,52,-0.026403,0.161738,0.090204,0.001932,0.099642,-0.003154,0.103900,1,1
2054,52,-0.040649,0.245357,0.073164,0.080250,0.180537,0.166814,0.067670,1,1
2068,52,-0.062076,0.294207,0.120524,0.147820,0.133039,0.055910,-0.013244,1,1
2060,52,0.036677,0.224969,-0.019095,0.054341,0.106518,0.005955,0.062487,1,1
2102,53,0.094165,0.183163,0.061386,0.086976,0.076670,0.064935,0.127459,1,1
2109,53,-0.015617,0.127726,0.052632,0.115438,0.259124,0.079614,0.099653,1,1
2082,53,-0.116582,0.210379,0.009647,0.137817,0.100161,0.129521,0.054071,1,1
2108,53,0.123478,0.159822,0.106083,0.150554,0.238012,0.052550,-0.001170,0,1
2098,53,0.026106,0.228070,0.111025,0.116328,0.180697,0.187651,0.095276,1,1
2097,53,0.016183,0.191515,0.104545,0.105661,0.072707,0.029758,0.049959,1,1
2100,53,-0.108539,0.137961,0.088714,0.060982,0.105125,0.110760,0.074374,1,1
2094,53,-0.029749,0.149293,0.048923,0.132713,0.202290,0.064372,0.165724,1,1
2096,53,-0.026017,0.225575,-0.017703,0.034986,0.170147,0.074785,0.135775,1,1
2083,53,-0.006344,0.154183,0.037616,0.128913,0.054190,0.127884,0.030054,1,1
2085,53,0.011906,0.233766,0.059514,0.107449,0.064653,0.115959,0.045065,1,1
2095,53,-0.074802,0.233795,0.020003,0.097130,0.085048,0.098666,0.113902,1,1
2118,53,-0.051538,0.155769,0.056831,0.078575,0.120715,0.060521,0.018153,1,1
2101,53,0.041675,0.155135,0.096873,0.169109,0.099784,0.080109,0.057426,1,1
2113,53,-0.007166,0.108828,0.086827,0.073314,0.107327,0.108113,0.110673,1,1
2081,53,-0.043717,0.167606,0.152063,0.120379,0.185761,0.051346,0.053384,1,1
2116,53,0.009817,0.234277,0.030751,0.087330,0.046932,0.058960,0.030669,1,1
2110,53,-0.149472,0.114511,0.002938,0.125233,0.033778,0.088837,0.110040,1,1
2090,53,-0.054009,0.087938,0.036976,0.078861,0.171169,0.091439,0.055783,1,1
2112,53,-0.068225,0.149420,0.073200,0.083355,0.229396,0.190881,0.021662,1,1
2119,53,-0.015105,0.198782,0.043523,0.159541,0.151550,0.114882,0.031001,1,1
2104,53,-0.091795,0.221511,0.158256,0.198916,0.153109,0.156779,0.002514,1,1
2105,53,-0.071580,0.135257,0.034084,0.135091,0.106379,0.127412,0.051319,1,1
2115,53,-0.069868,0.189937,-0.001083,-0.013556,0.142591,0.090550,0.015313,1,1
2088,53,-0.024228,0.291458,0.036394,0.082694,0.180319,0.096574,0.073940,1,1
2111,53,0.060095,0.191195,0.051687,0.040159,0.079449,0.116002,0.096888,1,1
2093,53,-0.051179,0.183804,0.117670,0.128037,0.172677,0.111508,0.010003,1,1
2117,53,-0.048834,0.207176,0.040044,0.157326,0.114384,0.144739,0.079647,1,1
2092,53,-0.022405,0.268656,0.063307,-0.020447,0.189258,0.115884,0.151141,1,1
2106,53,-0.033069,0.111662,0.142295,0.108793,0.180008,0.229342,0.026702,1,1
2103,53,0.018712,0.073718,0.099376,0.145370,0.189325,0.136155,0.147748,1,1
2099,53,0.062120,0.118086,0.142973,0.132547,0.181612,0.118642,0.112913,1,1
2089,53,-0.009685,0.174584,0.054945,0.121281,0.151017,0.128278,-0.052047,1,1
2091,53,-0.119366,0.296977,0.135855,0.086175,0.116050,0.041662,0.119932,1,0
2107,53,-0.014218,0.178777,0.194422,0.089631,0.087544,0.254319,0.028278,1,1
2114,53,-0.069363,0.147551,0.112545,0.136442,0.045062,0.185030,0.060452,1,1
2087,53,-0.011859,0.328515,0.120121,0.173188,-0.015763,0.068845,0.123127,1,0
2084,53,-0.010904,0.145192,0.010625,0.060269,0.120826,0.180918,0.164992,1,1
2080,53,-0.031885,0.221461,-0.018684,0.067045,0.116473,0.176313,0.031523,1,1
2086,53,-0.056674,0.158333,0.132138,0.065557,0.043184,0.061494,0.044385,1,1
2120,54,-0.077314,0.287232,0.062998,0.148481,0.166786,0.103673,0.125480,1,1
2122,54,0.037689,0.192794,0.126335,0.054903,0.205733,0.036140,0.000987,1,1
2152,54,-0.042297,0.155895,0.119211,0.168919,0.211278,0.166286,0.059420,1,1
2154,54,-0.143577,0.216064,0.042681,0.112340,0.217977,0.101398,0.049643,1,1
2132,54,-0.151803,0.134462,0.016929,0.168154,0.260043,0.062630,0.053420,1,1
2151,54,0.019182,0.177112,0.093539,0.137315,0.196889,0.178922,0.153023,1,1
2127,54,-0.011164,0.253231,0.095191,0.125282,0.192733,0.170295,0.098711,1,1
2153,54,-0.016432,0.129381,0.131437,-0.004011,0.065592,0.101283,0.082278,1,1
2130,54,-0.046664,0.225215,0.151947,0.126821,0.144872,0.069553,0.056397,1,1
2135,54,-0.101600,0.194221,0.087153,0.059215,0.108698,0.127442,0.086425,1,1
2145,54,0.011850,0.158880,0.113043,0.095878,0.163110,0.056225,0.129104,1,1
2133,54,-0.051300,0.235140,0.099250,0.193882,0.118643,0.091765,0.112116,1,1
2150,54,0.012725,0.281008,0.033026,0.024542,0.133907,0.098052,0.010533,1,1
2121,54,-0.009147,0.177067,0.068904,0.135166,0.092436,0.104441,0.111471,1,1
2146,54,-0.010082,0.157075,0.137120,0.117391,0.042116,0.168410,0.104315,1,1
2140,54,-0.128848,0.210760,0.121759,0.119185,0.103749,0.078392,0.064072,1,1
2136,54,-0.046339,0.165258,0.010787,0.051875,0.129754,0.150131,0.158140,1,1
2141,54,0.017261,0.178798,0.139037,0.101892,0.185501,0.120548,0.035329,1,1
2138,54,-0.021812,0.171588,0.079983,0.208270,0.189646,0.080823,-0.030767,1,1
2124,54,0.021859,0.125996,0.130904,0.005799,0.070891,0.114325,0.147381,1,1
2128,54,-0.000830,0.149624,0.040684,0.085610,0.054093,0.117300,0.049039,1,1
2155,54,-0.036385,0.185880,0.123066,0.141669,0.085227,0.074906,0.072394,1,1
2156,54,-0.048928,0.225342,0.082623,0.148551,0.071115,0.077093,0.137444,1,1
2144,54,-0.046286,0.159743,0.029877,0.149703,0.196400,0.107214,0.093499,1,1
2142,54,0.042242,0.167068,0.135534,0.150579,0.108813,0.194942,0.100696,1,1
2149,54,-0.072409,0.188773,0.171747,0.168471,0.061929,0.066831,0.101386,1,1
2147,54,-0.041114,0.108748,0.071224,0.070477,0.081155,0.056615,0.046110,1,1
2158,54,0.036604,0.158269,0.008404,0.094140,0.082456,0.135334,0.113675,1,1
2126,54,0.012763,0.124289,0.067260,0.174506,0.137294,0.184883,0.114544,1,1
2148,54,0.015950,0.206799,0.074011,0.068672,0.109085,0.095409,0.125787,1,1
2143,54,0.013960,0.219612,0.009232,0.026876,0.117265,0.085981,0.150419,1,1
2157,54,-0.071065,0.124619,0.153538,0.200786,0.140564,0.183850,0.070753,1,1
2123,54,-0.116886,0.152431,0.106301,0.072603,0.125443,0.177292,0.076090,1,1
2131,54,-0.009743,0.177638,0.128014,0.107467,0.128564,0.187225,0.115490,1,1
2139,54,-0.019462,0.190916,0.084885,0.146884,0.144754,0.179074,0.042516,1,1
2125,54,0.023399,0.194476,0.132779,0.117962,0.195968,0.003688,0.097366,1,1
2129,54,0.007768,0.192958,0.000312,0.062679,0.157490,0.056972,0.129414,1,1
2134,54,0.084837,0.198995,0.051883,0.174250,0.086647,0.078736,0.079169,1,1
2137,54,0.066275,0.206950,0.135615,0.142042,0.213687,0.128611,0.069794,1,1
2159,54,0.020754,0.121242,0.088670,0.102996,0.137007,0.038509,0.081318,1,1
2192,55,0.022663,0.243003,0.125773,-0.051110,0.174579,0.142585,0.077917,1,1
2199,55,-0.017252,0.157814,0.068998,0.076086,0.098171,0.083608,0.052035,1,1
2190,55,0.057010,0.009273,0.060013,0.117169,0.091464,0.022174,0.071778,0,1
2174,55,-0.015892,0.177668,0.059630,0.035929,0.184020,0.194977,0.104861,1,1
2171,55,-0.077082,0.176607,0.125291,0.185527,0.144150,0.091616,0.154742,1,1
2193,55,-0.029041,0.159756,0.102814,-0.026746,0.095898,0.086017,0.151121,1,1
2168,55,-0.066055,0.180045,0.040841,0.178556,0.144448,0.033784,0.096136,1,1
2175,55,-0.064864,0.250896,0.191672,0.094611,0.114205,0.133695,0.016279,1,1
2180,55,-0.020140,0.184332,0.098166,0.131715,0.190354,0.130940,0.073845,1,1
2182,55,0.009003,0.255781,0.022112,0.144413,0.124049,0.059787,0.071329,1,1
2195,55,-0.010924,0.197337,0.065400,0.078826,0.073027,0.114344,0.099054,1,1
2173,55,-0.048608,0.264711,0.115029,0.098540,0.108352,0.192082,0.063785,1,1
2164,55,-0.079857,0.262479,0.031176,0.139222,0.239743,0.029724,0.122847,1,1
2179,55,-0.002102,0.182973,0.080463,0.122303,0.106935,0.031001,0.049250,1,1
2167,55,-0.018185,0.254157,0.096701,0.157963,0.192267,0.145447,0.020130,1,1
2176,55,0.038301,0.171932,0.109367,0.155076,0.051849,0.212088,0.079201,1,1
2197,55,0.026134,0.185200,0.037587,0.118582,0.024194,0.233808,0.069522,1,1
2163,55,0.036335,0.248408,0.095225,0.046020,0.196915,0.108504,0.122572,1,1
2170,55,-0.050133,0.191014,0.264655,0.086330,0.273162,0.060836,0.154383,1,1
2162,55,0.014628,0.111929,0.132816,0.110698,0.180289,0.073660,0.056986,1,1
2181,55,-0.119097,0.200233,0.093623,0.170290,0.197019,0.046882,0.134762,1,1
2187,55,-0.046034,0.071902,0.069920,0.114948,0.130759,0.150892,0.138113,1,1
2184,55,-0.027138,0.148153,0.166609,0.153525,0.038030,0.132897,0.135224,1,1
2178,55,0.026608,0.257389,0.131129,0.175142,0.064033,0.048890,0.155369,1,1
2177,55,-0.071025,0.293363,0.124656,0.103499,0.136154,0.158886,0.141982,1,1
2165,55,0.023737,0.202389,0.084245,0.100084,0.164412,0.173482,0.111760,1,1
2161,55,-0.052232,0.209792,0.047816,0.175320,0.181582,0.179619,-0.066573,1,1
2194,55,0.014341,0.155275,0.113054,0.096372,0.126008,0.085650,0.104014,1,1
2183,55,-0.076064,0.203828,0.077132,0.050510,0.133453,0.181122,0.026445,1,1
2172,55,0.011657,0.256905,0.080359,0.082402,0.172909,0.206873,-0.007268,1,1
2189,55,0.030053,0.140767,0.050327,0.157548,0.099395,0.046169,0.099943,1,1
2198,55,0.020218,0.073199,0.045142,0.105565,0.243910,0.117410,0.049535,1,1
2191,55,-0.033223,0.243900,0.033630,0.032267,0.039472,0.129728,0.142495,1,1
2160,55,-0.048278,0.152412,0.136508,0.113684,0.208434,0.167125,0.139082,1,1
2166,55,-0.056328,0.142799,0.036776,0.209796,0.180300,0.088982,0.135724,1,1
2196,55,-0.021679,0.163713,0.088234,0.155439,0.149421,0.077053,0.195438,1,1
2188,55,0.051677,0.149802,-0.011089,0.063738,0.133935,0.091357,0.141679,1,1
2186,55,-0.028125,0.140966,0.114505,0.107499,0.138917,0.148597,0.074158,1,1
2185,55,-0.072833,0.185042,0.057477,0.104620,0.098698,0.113451,0.065154,1,1
2169,55,-0.098286,0.230308,0.063738,0.160611,0.083032,0.055130,0.082806,1,1
2213,56,0.038006,0.278816,0.169892,0.040815,0.232012,0.099843,0.101000,1,1
2204,56,-0.062627,0.139658,0.054742,0.103791,0.197716,0.078746,0.164633,1,1
2212,56,0.082734,0.253505,-0.023484,0.108735,0.117080,0.173970,0.061923,1,1
2226,56,0.006090,0.281099,0.129754,0.120849,0.200427,0.088125,0.023284,1,1
2222,56,0.011161,0.184879,0.076527,0.090301,0.076699,0.043071,0.110535,1,1
2214,56,-0.039318,0.222056,0.112594,0.076050,0.007199,0.199565,0.136095,1,1
2235,56,0.063714,0.163011,0.065304,0.008198,0.153911,0.201925,0.100202,1,1
2224,56,0.033678,0.238744,0.154162,0.152899,0.111157,0.113377,0.098009,1,1
2238,56,0.085016,0.211371,0.149852,0.155973,0.138547,0.022578,0.097743,1,1
2233,56,0.011589,0.203282,0.120733,0.045436,0.248762,0.169507,0.038888,1,1
2231,56,0.038069,0.188336,0.064215,0.070679,0.069348,0.143472,0.135680,1,1
2200,56,0.009315,0.243630,0.049453,0.132537,0.167588,0.131362,0.134047,1,1
2218,56,-0.027686,0.168652,0.129710,0.153305,0.112418,0.200079,0.028234,1,1
2203,56,-0.043907,0.227042,0.001281,0.170548,0.176092,0.086183,0.127881,1,1
2227,56,0.018238,0.157691,0.044440,0.149670,0.263828,0.174740,0.153448,1,1
2202,56,-0.002062,0.236930,0.201238,0.137612,0.148932,0.148821,0.057560,1,1
2220,56,-0.084847,0.135015,0.095448,0.060950,0.187857,0.047014,0.028805,1,1
2211,56,0.021453,0.172149,0.160382,0.129000,0.153522,0.094775,0.134745,1,1
2219,56,-0.050635,0.144914,0.059809,0.148431,0.179517,0.102426,0.044848,1,1
2223,56,0.030681,0.264135,0.143930,0.192701,0.146800,0.153221,0.050422,1,1
2216,56,0.008709,0.200771,0.078468,0.125905,0.019929,0.088915,0.144174,1,1
2210,56,0.076744,0.123784,0.102520,0.155173,0.129342,0.084204,0.109535,1,1
2201,56,-0.022432,0.225390,0.094869,-0.002577,0.180130,0.089445,0.139336,1,1
2234,56,-0.042388,0.162255,0.088401,0.093589,0.209406,0.144905,0.127898,1,1
2239,56,0.010003,0.104802,0.127203,0.109693,0.156470,0.060150,0.143766,1,1
2221,56,0.040772,0.198320,0.055180,0.083201,0.111736,0.207175,0.061077,1,1
2228,56,-0.024544,0.214285,0.059322,0.095163,0.188605,0.118337,-0.036047,1,1
2207,56,0.036806,0.183469,0.018756,0.070352,0.154093,0.138877,0.005369,1,1
2232,56,0.016109,0.145222,0.091216,0.165707,0.155864,0.157618,0.073934,1,1
2205,56,-0.011649,0.240972,0.098066,0.105244,0.069061,0.082014,0.041970,1,1
2215,56,-0.017120,0.263963,0.115599,0.156735,0.118330,0.148207,0.084265,1,1
2230,56,0.011651,0.137032,0.105953,0.170982,0.160573,0.039283,0.109893,1,1
2236,56,-0.073596,0.072257,0.054198,0.195691,0.165384,0.096119,0.075867,1,1
2225,56,0.001709,0.184114,0.083840,0.228272,0.124081,0.123034,0.077592,1,1
2208,56,-0.041494,0.214505,0.088360,0.103832,0.212449,0.135813,0.124925,1,1
2229,56,-0.014371,0.169407,0.200534,0.079820,0.193913,0.088098,0.051371,1,1
2237,56,0.009815,0.160396,0.023608,0.077096,0.166027,-0.000736,0.031635,1,1
2209,56,0.034655,0.225473,0.062663,0.039185,0.107600,0.089912,0.004095,1,1
2217,56,-0.029705,0.225788,0.078111,0.165991,0.277186,0.127422,0.067063,1,1
2206,56,0.038965,0.190517,0.068019,0.194702,0.097141,0.171858,0.068522,1,1
2277,57,0.072275,0.179184,0.130955,0.202192,0.131804,0.164800,0.164429,1,1
2244,57,0.044433,0.157384,0.036986,0.181636,0.172495,0.115696,0.107036,1,1
2242,57,-0.030496,0.245372,0.138580,0.097395,0.167496,0.231569,0.114765,1,1
2262,57,0.004297,0.256889,0.129510,0.177124,0.080591,0.096197,0.018195,1,1
2259,57,0.024761,0.154025,0.047070,0.139523,0.187108,0.223560,0.040287,1,1
2257,57,-0.044688,0.175973,0.141088,0.163637,0.204032,0.120369,0.131272,1,1
2253,57,0.014133,0.158206,0.111611,0.046537,0.202070,0.058642,0.148552,1,1
2245,57,-0.022146,0.142356,0.049792,-0.027719,0.253489,0.132048,0.070567,1,1
2267,57,0.016659,0.133355,0.128197,0.102334,0.162809,0.049670,0.070057,1,1
2243,57,-0.070670,0.211089,0.155556,0.253916,0.081270,0.241687,0.097612,1,1
2279,57,0.041685,0.153097,0.113608,0.192397,0.092209,0.098248,0.107760,1,1
2276,57,0.049497,0.233067,0.173995,0.089749,0.150224,0.146970,0.087026,1,1
2247,57,-0.071303,0.147177,0.137460,0.135850,0.159765,0.152201,0.127761,1,1
2266,57,0.090264,0.202580,0.069329,0.119662,0.160892,0.122475,0.141360,1,1
2255,57,0.100855,0.168973,0.091660,0.197292,0.130201,0.101718,0.057070,1,1
2270,57,-0.083847,0.180611,0.047227,0.114765,0.232159,0.087069,0.101262,1,1
2241,57,-0.101103,0.246276,0.078257,0.149725,0.208711,0.103387,0.051058,1,1
2254,57,-0.036169,0.192580,0.093444,0.123450,0.107833,0.079441,0.103079,1,1
2249,57,-0.014424,0.186701,0.225424,0.027948,0.195078,0.189647,0.177496,1,1
2251,57,0.049078,0.213640,0.094749,0.138437,0.112168,0.100996,0.102085,1,1
2261,57,0.133578,0.181511,0.168525,0.098274,0.170611,0.103677,0.054671,1,1
2248,57,-0.027177,0.199916,0.129813,0.196021,0.185983,0.192141,0.092511,1,1
2268,57,0.087717,0.112408,0.084923,0.189438,0.085742,0.174043,0.141084,1,1
2269,57,-0.078419,0.185799,0.128113,0.169991,0.162921,0.129490,0.130225,1,1
2250,57,-0.041469,0.247978,0.156936,0.145418,0.259877,0.095452,0.165819,1,1
2256,57,0.000508,0.243760,0.085087,0.121990,0.187190,0.109433,0.044592,1,1
2260,57,-0.027337,0.147901,0.155375,0.121293,0.140726,0.189277,0.071076,1,1
2264,57,0.006901,0.173852,0.077117,0.255846,0.204433,0.170266,0.188326,1,1
2275,57,0.032097,0.224076,0.040038,0.112734,0.184263,0.076401,0.043647,1,1
2274,57,0.040141,0.223306,0.132341,0.147915,0.133926,0.163435,0.092567,1,1
2263,57,0.003624,0.220311,0.072645,0.112983,0.105668,0.143206,0.035257,1,1
2252,57,0.007167,0.285471,0.097334,0.040343,0.183477,0.063791,0.121214,1,1
2240,57,0.099401,0.220224,0.096536,0.161417,0.115312,0.068485,0.167340,1,1
2271,57,-0.010774,0.276110,0.120286,0.139297,0.159989,0.078802,0.150857,1,1
2258,57,-0.037290,0.192133,0.110188,0.153628,0.132862,0.182042,0.127244,1,1
2278,57,0.035074,0.174117,0.095545,0.185159,0.196861,0.153553,0.144944,1,1
2246,57,0.046486,0.205275,0.069088,0.067174,0.178536,0.070307,0.012504,1,1
2272,57,0.013432,0.140620,0.054193,0.138070,0.084274,0.062389,0.060163,1,1
2273,57,0.008550,0.210336,0.053915,0.212292,0.034601,0.084008,0.067140,1,1
2265,57,-0.022558,0.174740,0.102605,0.075028,0.171931,0.128285,-0.010389,1,1
2283,58,-0.013552,0.237358,0.075522,0.214607,0.075140,0.067122,0.026395,1,1
2286,58,-0.110447,0.241946,0.076320,0.116096,0.189184,0.153104,0.066281,1,0
2309,58,0.037769,0.108364,0.036153,0.232126,0.228919,0.142563,0.097028,1,1
2295,58,-0.039239,0.199362,0.218973,0.138104,0.117990,0.113764,0.069548,1,1
2299,58,0.069974,0.191419,0.207369,0.215710,0.126834,0.179296,0.108058,1,1
2280,58,0.072581,0.217246,0.038511,0.156767,0.190691,0.189849,0.015674,1,1
2319,58,-0.022324,0.133909,0.134426,0.125674,0.078261,0.105179,0.168759,1,1
2282,58,0.097029,0.189246,0.191129,0.115137,0.208055,0.120037,0.084839,1,1
2290,58,0.090984,0.276976,0.146121,0.087231,0.213537,0.136889,0.105603,1,1
2313,58,-0.015322,0.039374,0.096045,0.099209,0.156078,0.113124,0.152854,0,1
2307,58,-0.060576,0.111462,0.091528,0.054697,0.107741,0.141445,0.032708,1,1
2304,58,-0.022335,0.140196,0.144231,0.094087,0.061061,0.114446,0.178791,1,1
2293,58,0.029304,0.121213,0.117301,0.033761,0.159624,0.065539,0.098627,1,1
2308,58,0.017504,0.174605,0.128723,0.205437,0.126720,0.165202,0.037952,1,1
2287,58,0.028265,0.106830,0.132648,0.103099,0.169349,0.101973,0.144486,1,1
2315,58,0.005376,0.138258,0.086588,0.120228,0.214812,0.201251,0.116758,1,1
2302,58,0.019302,0.113994,0.144113,0.109957,0.179610,0.137276,0.087453,1,1
2317,58,0.102803,0.067186,0.151674,0.101356,0.174876,0.009473,0.111208,0,1
2288,58,-0.113354,0.206925,0.072167,0.162061,0.040997,0.129756,0.132462,1,1
2306,58,0.000330,0.290794,0.094928,0.225547,0.153353,0.156988,0.146524,1,1
2301,58,0.046870,0.135392,0.085648,0.042213,0.071472,0.156860,0.199142,1,1
2303,58,0.033708,0.142531,0.099905,0.136579,0.155388,0.115443,0.137154,1,1
2284,58,0.021824,0.285882,0.094271,0.119389,0.170527,0.080335,0.085854,1,1
2311,58,0.011328,0.141176,0.119420,0.237198,0.193334,0.137612,0.161290,1,1
2300,58,-0.005719,0.162203,0.090529,0.113345,0.056316,0.178893,0.077831,1,1
2292,58,-0.008024,0.212631,0.012265,0.135045,0.215519,0.179386,0.159700,1,1
2297,58,-0.044226,0.159714,0.069897,0.137271,0.101540,0.144851,0.063555,1,1
2281,58,-0.010046,0.117533,0.139871,0.083856,0.165159,0.177152,0.116152,1,1
2291,58,0.061300,0.274452,0.067217,0.180863,0.164283,0.138161,0.063142,1,1
2294,58,0.008999,0.235257,0.168222,0.050306,0.122220,0.155684,0.070694,1,1
2310,58,0.140319,0.207030,0.130194,0.065794,0.123960,0.139278,0.063615,1,1
2318,58,0.033535,0.159668,0.092295,0.175717,0.113044,0.176880,0.081094,1,1
2305,58,0.017010,0.151667,0.218236,0.105159,0.159602,0.025304,0.141662,1,1
2289,58,0.063840,0.187508,0.131646,-0.015313,0.083868,0.085221,0.081446,1,1
2298,58,0.012671,0.246082,0.044684,0.031787,0.130014,0.112919,0.067421,1,1
2316,58,0.030438,0.343524,0.175083,0.143962,0.195991,0.066680,0.159944,1,1
2296,58,0.114376,0.087996,0.144334,0.187537,0.074533,0.103726,0.063974,1,1
2285,58,0.038302,0.154106,0.088860,0.205661,0.323285,0.105262,0.107565,1,1
2314,58,-0.047333,0.137796,0.141682,0.119485,0.059275,0.031144,0.148950,1,1
2312,58,-0.000543,0.198413,0.073652,0.200510,0.174873,0.070345,0.162577,1,1
2354,59,0.034138,0.109698,0.169529,0.153171,0.151858,0.159628,0.136543,1,1
2331,59,0.035093,0.249460,0.097018,0.139486,0.112544,0.134260,0.082906,1,1
2347,59,0.072493,0.120787,0.160080,0.083255,0.238773,0.205286,0.102372,1,1
2321,59,-0.064373,0.053143,0.131843,0.158579,0.176620,0.133999,0.017527,1,0
2348,59,0.046483,0.174756,0.134636,0.129097,0.105131,0.071970,0.120645,1,1
2355,59,0.044212,0.238925,0.060517,0.156295,0.212990,0.121749,0.045342,1,1
2340,59,0.026036,0.111949,0.062099,-0.019856,0.152509,0.118342,0.130986,1,1
2335,59,-0.008523,0.157915,0.088428,0.121765,0.147636,0.164526,0.099601,1,1
2349,59,0.011828,0.132179,0.200894,0.167668,0.160213,0.231329,0.122973,1,1
2353,59,0.002021,0.143002,0.137958,0.170737,0.134948,0.147319,0.083445,1,1
2328,59,0.005872,0.241685,0.086509,0.211091,0.129778,0.101033,0.125307,1,1
2333,59,-0.053360,0.208474,0.135877,0.160746,0.136583,0.140290,0.096572,1,1
2324,59,0.001722,0.190558,0.082624,0.072789,0.137953,0.125275,0.090172,1,1
2351,59,0.064239,0.202057,0.224956,0.133135,0.179547,0.117975,0.025203,1,1
2327,59,0.019367,0.200573,0.113879,0.105460,0.143118,0.146784,0.093574,1,1
2323,59,0.103152,0.263338,0.146359,0.041809,0.214740,0.195881,0.105572,1,1
2338,59,-0.031002,0.209920,0.101006,0.127641,0.167459,0.075325,0.107388,1,1
2344,59,-0.045325,0.136852,0.120641,0.213727,0.109271,0.177230,0.089462,1,1
2346,59,0.020390,0.198936,0.151106,0.143517,0.195419,0.161308,0.096027,1,1
2342,59,0.048299,0.100007,0.055257,0.169024,0.139596,0.101883,0.225038,1,1
2339,59,0.045825,0.228418,0.156986,0.136819,0.142442,0.095522,0.127041,1,1
2345,59,-0.020165,0.069658,0.083351,0.138069,0.171845,0.116964,0.084279,1,1
2341,59,0.043777,0.255740,0.122492,0.173342,0.120168,0.177591,0.173035,1,1
2330,59,-0.037876,0.137941,0.150469,0.042290,0.144146,0.101821,0.195730,1,1
2359,59,0.075867,0.057704,0.031103,0.111568,0.154866,0.164760,0.063383,1,1
2350,59,0.066794,0.123720,0.104415,0.138408,0.158861,0.040549,0.187727,1,1
2343,59,0.089653,0.146499,0.057331,0.113538,0.185301,0.126922,0.147174,1,1
2326,59,0.004151,0.081628,0.085620,0.214895,0.149923,0.044343,0.078902,1,1
2325,59,0.080567,0.308451,0.073564,0.092666,0.123914,0.154324,0.074629,1,1
2320,59,0.037363,0.123691,0.040143,0.181171,0.207179,0.134154,0.071179,1,1
2332,59,0.002103,0.240119,0.147262,0.142751,0.163667,0.168619,0.085918,1,1
2336,59,-0.000330,0.103691,0.049147,0.059640,0.193530,0.215700,0.067101,1,1
2337,59,0.062723,0.193028,0.075552,0.059303,0.103983,0.116745,0.115051,1,1
2352,59,0.008974,0.162063,0.124409,0.161559,0.095808,0.140169,0.016795,1,1
2322,59,0.058373,0.161248,0.147136,0.105602,0.109541,0.107479,0.125221,1,1
2357,59,0.042311,0.110316,0.055269,0.012709,0.241009,0.096182,0.081982,1,1
2334,59,-0.015095,0.222290,0.085829,0.172587,0.155489,0.122454,0.087002,1,1
2329,59,-0.022528,0.182549,0.061158,0.247690,0.150830,0.197782,0.152536,1,1
2356,59,0.047502,0.140459,0.015134,0.134176,0.191896,0.244204,0.079458,1,1
2358,59,0.072939,0.178714,0.143636,0.153448,0.128538,0.102209,0.062732,1,1
2393,60,0.014551,0.034414,0.104562,0.148840,0.115870,0.119831,0.101923,0,1
2391,60,0.095201,0.154861,0.112256,0.106099,0.164407,0.130220,0.103082,1,1
2396,60,0.070346,0.197366,0.137893,0.164089,0.129094,0.114860,0.047330,1,1
2367,60,0.091038,0.232512,0.092959,0.139274,0.181788,0.116040,0.044782,1,1
2399,60,0.036021,0.211797,0.183015,0.203196,0.168050,0.140033,0.145072,1,1
2373,60,0.058065,0.212968,0.094711,0.200097,0.111744,0.080093,0.066724,1,1
2389,60,0.088676,0.187138,0.175463,0.094030,0.074511,0.124210,0.119427,1,1
2386,60,0.005693,0.246444,0.184595,0.078376,0.223885,0.097632,0.115885,1,1
2368,60,0.015220,0.194673,0.069676,0.101356,0.202956,0.174165,0.088672,1,1
2379,60,0.064888,0.241373,0.146653,0.146822,0.199497,0.162907,0.102633,1,1
2372,60,-0.016822,0.201094,-0.025681,0.080929,0.185620,0.132931,0.021828,1,1
2365,60,-0.032129,0.092091,0.008711,0.098493,0.133349,0.177094,0.120863,1,1
2374,60,0.075597,0.147583,0.114868,0.154692,0.136010,0.127514,0.168836,1,1
2371,60,0.009296,0.166152,0.140727,0.191232,0.101231,0.143027,0.142417,1,1
2377,60,-0.024823,0.248706,0.027899,0.176875,0.101691,0.171932,0.179662,1,1
2366,60,0.110168,0.189848,0.147392,0.179559,0.178129,0.103778,0.139739,1,1
2360,60,0.011603,0.230353,0.059733,0.136165,0.160989,0.108449,0.123363,1,1
2383,60,0.018669,0.278371,0.119268,0.106940,0.133016,0.200107,0.022961,1,1
2394,60,0.102985,0.019439,0.152851,0.146631,0.221154,0.037381,0.131285,0,1
2395,60,0.050770,0.148024,0.080406,0.248723,0.147926,0.221198,0.039991,1,1
2397,60,0.048716,0.236189,0.134607,0.152535,0.209204,0.132927,0.062237,1,1
2375,60,0.024296,0.183834,0.179753,0.117258,0.225671,0.087588,0.136317,1,1
2398,60,-0.042747,0.145891,0.101436,0.221588,0.150269,0.197747,0.222347,1,1
2369,60,0.101719,0.214142,0.090708,0.188777,0.169105,0.099153,0.092248,1,1
2376,60,-0.015948,0.212685,0.060943,0.110999,0.130278,0.062282,0.157913,1,1
2378,60,0.008696,0.193567,0.170988,0.205761,0.283211,0.082358,0.092247,1,1
2388,60,0.044670,0.202926,0.067898,0.094522,0.200917,0.099967,0.081943,1,1
2385,60,0.046867,0.082142,0.075877,0.114780,0.085779,0.130515,0.199515,1,1
2363,60,0.058528,0.169546,0.041456,0.144540,0.313740,0.017227,0.101088,1,1
2370,60,-0.037973,0.257293,0.119955,0.131953,0.095593,0.207825,0.081528,1,1
2382,60,-0.017254,0.219167,0.075013,0.118256,0.304752,0.196980,0.109560,1,1
2361,60,-0.039215,0.175254,0.136098,0.127171,0.226761,0.091231,0.159090,1,1
2392,60,0.083203,0.140795,0.082883,0.141670,0.148535,0.097205,0.053975,1,1
2381,60,0.014867,0.241702,0.157877,0.107963,0.117823,0.121234,0.151227,1,1
2362,60,-0.017454,0.167765,0.162942,0.114959,0.146570,0.138069,0.109097,1,1
2387,60,0.063531,0.161719,0.109151,0.072397,0.133919,0.150225,0.081646,1,1
2384,60,-0.001929,0.171999,0.180988,0.182423,0.123781,0.137588,0.117180,1,1
2380,60,0.082504,0.227454,0.260355,0.128668,0.086457,0.225192,0.020065,1,1
2390,60,0.112793,0.151503,0.020326,0.223695,0.174349,0.101663,0.083394,1,1
2364,60,0.043467,0.167302,0.158147,0.116590,0.166785,0.191996,0.118607,1,1
2420,61,0.079117,0.110279,0.113096,0.061623,0.214443,0.260738,0.052682,1,1
2410,61,0.060990,0.215803,0.171156,0.207577,0.244410,0.275343,0.122342,1,1
2418,61,-0.028376,0.242427,0.117935,0.167979,0.193179,0.193830,0.197874,1,1
2424,61,-0.021499,0.042255,0.120981,0.093867,0.152019,0.162312,0.182817,0,1
2402,61,-0.083123,0.157486,0.137977,0.142951,0.094307,0.135562,0.072630,1,1
2422,61,0.084929,0.199676,0.050371,0.153267,0.242318,0.127604,0.075592,1,1
2413,61,-0.000900,0.215727,0.062440,0.212639,0.113012,0.119850,0.215548,1,1
2434,61,0.051485,0.212373,0.227735,0.061953,0.154737,0.164413,0.166226,1,1
2428,61,0.029242,0.193435,0.119503,0.250625,0.136927,0.110276,0.086697,1,1
2408,61,0.032637,0.274050,0.081953,0.222302,0.106004,0.139412,0.111095,1,1
2431,61,0.050060,0.153650,0.142817,0.110435,0.176513,0.220938,0.194217,1,1
2430,61,0.051685,0.192445,0.058238,0.127137,0.118097,0.145040,0.184321,1,1
2411,61,-0.066942,0.166899,0.156937,0.171122,0.080783,0.209394,0.021884,1,1
2407,61,-0.070354,0.106446,0.052524,0.110699,0.206698,0.089566,0.087049,1,1
2405,61,0.036311,0.232848,0.107539,0.162556,0.124994,0.104279,0.091966,1,1
2416,61,-0.002628,0.156199,0.114702,0.082689,0.209426,0.125029,0.066807,1,1
2427,61,0.067058,0.191320,0.058335,0.182395,0.082711,0.136199,0.131942,1,1
2414,61,-0.030491,0.139867,0.067876,0.205241,0.124434,0.217951,0.086284,1,1
2417,61,0.047053,0.213046,0.109091,0.261757,0.191047,0.178187,0.052618,1,1
2433,61,0.033578,0.184552,0.100470,0.161477,0.255575,0.204687,0.142668,1,1
2401,61,0.053773,0.167921,0.150104,0.128639,0.150831,0.134277,0.051377,1,1
2425,61,0.054760,0.149277,0.163863,0.077228,0.198660,0.120161,0.103828,1,1
2406,61,-0.046394,0.177050,-0.024044,0.151607,0.186549,0.109030,0.052181,1,1
2404,61,0.074464,0.234370,0.076388,0.139921,0.196544,0.241405,0.104516,1,1
2421,61,0.011165,0.226224,0.055516,0.063260,0.100390,0.193979,0.079511,1,1
2439,61,0.123177,0.154997,0.060934,0.150493,0.141300,0.232939,0.080715,1,1
2436,61,0.014562,0.136600,0.129494,0.092159,0.203450,0.058023,0.027128,1,1
2426,61,0.020925,0.102235,0.142830,0.175266,0.108914,0.112811,0.208321,1,1
2429,61,0.097919,0.190114,0.008842,0.084277,0.191109,0.041096,0.143232,1,1
2432,61,-0.027459,0.257183,0.071773,0.088863,0.112143,0.067917,0.062036,1,1
2419,61,0.005250,0.200643,0.164504,0.226740,0.104966,0.164749,0.030155,1,1
2438,61,0.226777,0.246831,0.069631,-0.004978,0.115341,0.180008,0.146343,0,1
2409,61,0.002317,0.191778,0.126850,0.145161,0.144073,0.149104,0.021648,1,1
2400,61,-0.095753,0.213135,0.119563,0.121928,0.174362,0.055347,0.140156,1,1
2412,61,0.093169,0.200989,0.092165,0.091960,0.178320,0.209890,0.037332,1,1
2415,61,-0.010617,0.141977,0.074671,0.039578,0.137604,0.083984,0.188287,1,1
2423,61,0.023047,0.165132,0.152436,0.183354,0.171167,0.157966,0.010509,1,1
2435,61,0.093218,0.068929,0.147520,0.195716,0.133912,0.225066,0.166778,1,1
2437,61,0.072945,0.182938,0.062238,0.031711,0.115613,0.156507,0.113712,1,1
2403,61,0.019055,0.098441,0.112880,0.152644,0.141510,0.095006,0.105612,1,1
2444,62,0.044845,0.256433,0.197064,0.136549,0.198348,0.153371,0.041327,1,1
2472,62,0.043714,0.138118,0.134621,0.134800,0.175970,0.192148,0.071285,1,1
2476,62,-0.040019,0.304051,0.093381,0.156115,0.137289,0.158935,-0.013922,1,1
2467,62,0.133545,0.141023,0.101668,0.084539,0.118518,0.165569,0.111044,1,1
2455,62,0.076554,0.153521,0.117282,0.148405,0.160099,0.085280,0.173002,1,1
2469,62,0.097589,0.196506,0.146115,0.193926,0.076845,0.153769,0.067858,1,1
2458,62,-0.040370,0.123087,0.034950,0.090314,0.100278,0.124093,0.102139,1,1
2449,62,-0.021852,0.220741,0.015219,0.111036,0.289678,0.128453,0.088404,1,1
2471,62,0.016815,0.210650,0.081920,0.113786,0.162599,0.121949,0.136446,1,1
2459,62,0.092910,0.266687,0.104914,0.276544,0.244189,0.161108,-0.016511,1,1
2470,62,0.082320,0.212072,0.123728,0.088029,0.098989,0.161515,0.119590,1,1
2478,62,-0.013573,0.099835,0.119263,0.061250,0.213115,0.094961,0.099424,1,1
2451,62,0.037415,0.237175,0.153397,0.080947,0.175140,0.149288,0.201785,1,1
2475,62,0.078006,0.189407,0.052549,0.091782,0.055771,0.092146,0.134136,1,1
2468,62,0.040197,0.152805,0.042295,0.156679,0.121046,0.155477,0.085419,1,1
2479,62,0.103230,0.127542,0.067817,0.097323,0.161056,0.173575,0.082317,1,1
2447,62,0.024617,0.222061,0.093566,0.190137,0.231163,0.195615,0.050241,1,1
2464,62,0.136948,0.265795,0.099871,0.126507,0.214842,0.065962,0.198471,1,1
2441,62,0.082681,0.257694,0.188020,0.204425,0.144384,0.172637,0.088816,1,1
2462,62,0.014993,0.182221,0.100499,0.184993,0.166405,0.180867,0.021660,1,1
2448,62,0.049686,0.178830,0.118677,0.164356,0.234018,0.172366,0.096408,1,1
2453,62,0.014904,0.095390,0.058427,0.185848,0.156499,0.156406,0.101686,1,1
2450,62,0.080309,0.284267,0.062002,0.184971,0.166312,0.028246,0.132158,1,1
2445,62,0.012418,0.124825,0.174232,0.132259,0.101441,0.081524,0.166348,1,1
2454,62,0.065285,0.223640,0.161677,0.132281,0.130365,0.213461,-0.018862,1,1
2443,62,-0.049420,0.142908,0.070866,0.173906,0.195415,0.118231,0.176079,1,1
2446,62,0.090211,0.100149,0.099983,0.152309,0.176717,0.144456,0.081525,1,1
2452,62,0.010303,0.266223,0.055370,0.084091,0.148363,0.178569,0.071552,1,1
2442,62,0.095588,0.282837,0.094274,0.106288,0.249938,0.185471,0.087578,1,1
2474,62,0.107649,0.234593,0.182718,0.141806,0.234792,0.225016,0.107486,1,1
2466,62,0.048320,0.194812,0.073017,0.158150,0.180698,0.105189,0.114608,1,1
2477,62,0.039431,0.162823,0.134135,0.177775,0.134172,0.111351,0.097261,1,1
2440,62,0.039974,0.286571,0.115748,0.142606,0.180572,0.142276,0.158062,1,1
2473,62,0.022356,0.176835,0.053519,0.192736,0.115557,0.170111,0.023549,1,1
2457,62,0.099142,0.094559,0.173004,0.194759,0.223223,0.023355,0.118385,1,1
2460,62,-0.007835,0.124054,0.110171,0.132102,0.000648,0.107344,0.092820,1,1
2463,62,0.058476,0.162482,0.014792,0.036331,0.195282,0.134779,0.199730,1,1
2456,62,0.011516,0.204014,0.063766,0.107871,0.114808,0.134044,0.060926,1,1
2461,62,0.116004,0.221185,0.109908,0.166319,0.218493,0.172471,0.136740,1,1
2465,62,-0.008634,0.178206,0.070938,0.136680,0.089023,0.095685,0.093896,1,1
2516,63,0.015369,0.202695,0.045576,0.146659,0.205161,0.182501,0.094237,1,1
2482,63,0.054624,0.272916,0.093862,0.055130,0.159708,0.072709,0.120964,1,1
2489,63,-0.014149,0.215101,0.050632,0.068813,0.129793,0.101166,0.028969,1,1
2503,63,0.005423,0.261562,0.152248,0.157871,0.169925,0.181464,0.108404,1,1
2496,63,0.019491,0.174810,0.163867,0.145009,0.202283,0.170700,0.089175,1,1
2515,63,0.080969,0.185162,0.245461,0.102268,0.178987,0.286900,0.083508,1,1
2495,63,0.068745,0.253513,0.153472,0.086527,0.289969,0.182821,0.111162,1,1
2486,63,0.005845,0.182027,0.053045,0.091254,0.080553,0.093845,0.073260,1,1
2505,63,0.030749,0.146886,0.083158,0.205838,0.198519,0.182304,0.147151,1,1
2480,63,-0.061582,0.186661,0.108391,0.036702,0.099976,0.126414,0.127540,1,1
2518,63,0.080899,0.140946,0.096603,0.080230,0.221045,0.111399,0.140354,1,1
2512,63,0.076187,0.080625,0.121582,0.149093,0.189257,0.114664,0.135252,1,1
2498,63,0.048940,0.212349,0.037905,0.121953,0.180740,-0.040206,0.088578,1,1
2490,63,0.066311,0.321672,0.066516,0.067959,0.196379,0.159317,0.059714,1,1
2517,63,0.037100,0.140339,0.042324,0.171448,0.287092,0.191968,0.079087,1,1
2488,63,-0.041945,0.192686,0.111240,0.139255,0.094743,0.128956,0.139051,1,1
2499,63,0.029327,0.199174,0.095966,0.072695,0.133202,0.124722,0.013182,1,1
2494,63,0.070273,0.203981,0.106655,0.207727,0.137259,0.117426,0.136643,1,1
2509,63,-0.015897,0.169134,0.002690,0.158053,0.181769,0.115720,0.121236,1,1
2502,63,0.052012,0.297654,0.197653,0.103111,0.128124,0.194696,0.119933,1,1
2487,63,0.068120,0.164105,0.099488,0.112798,0.184952,0.244334,0.066857,1,1
2492,63,0.075110,0.215382,0.118023,0.212600,0.071939,0.165403,0.149188,1,1
2497,63,0.058910,0.100957,0.070012,0.196806,0.155554,0.067695,0.092076,1,1
2501,63,0.068476,0.208680,0.025549,0.062221,0.072775,0.148258,0.099011,1,1
2484,63,0.061734,0.232534,0.172314,0.144220,0.217447,0.220175,0.073352,1,1
2481,63,0.060965,0.248632,0.081644,0.091976,0.169527,0.049146,0.017161,1,1
2506,63,-0.009767,0.185358,0.161259,0.165577,0.173558,0.119891,0.196468,1,1
2504,63,0.048571,0.136486,0.130515,0.139229,0.209283,0.155748,0.066336,1,1
2513,63,0.037564,0.238518,0.084422,0.134238,0.187295,0.117285,0.061921,1,1
2510,63,-0.018147,0.182770,0.181258,0.136284,0.246594,0.108700,0.171765,1,1
2511,63,-0.036453,0.183459,0.202391,0.136623,0.206984,0.138767,0.170868,1,1
2483,63,0.076262,0.220281,0.059600,0.103457,0.196341,0.174912,0.156141,1,1
2519,63,0.095323,0.201731,0.107234,0.110467,0.266317,0.064960,0.140266,1,1
2500,63,0.054621,0.109900,0.092278,0.067495,0.159077,0.057359,0.156692,1,1
2508,63,0.107583,0.215467,0.055670,0.072560,0.261822,0.185120,0.165108,1,1
2514,63,0.088266,0.236433,0.111261,0.268151,0.209026,0.046645,0.003464,1,1
2485,63,-0.002001,0.249986,0.160148,0.145983,0.180711,0.147097,0.099823,1,1
2507,63,0.076610,0.176606,0.109332,0.075457,0.128849,0.231274,0.083030,1,1
2493,63,0.030073,0.157578,0.095727,0.156615,0.007292,0.107442,0.129239,1,1
2491,63,0.077279,0.221557,0.133768,0.181668,0.194439,0.168501,0.067355,1,1
2555,64,0.141280,0.172991,0.070562,0.171484,0.186535,0.139904,0.073675,1,1
2525,64,0.095258,0.173890,0.109123,0.151302,0.118366,0.175680,0.062427,1,1
2546,64,0.120311,0.186405,0.092665,0.135385,0.172407,0.140880,0.089450,1,1
2536,64,0.006469,0.164741,0.124669,0.159381,0.140122,0.068767,0.092161,1,1
2558,64,0.029118,0.243821,0.155370,0.113025,0.186184,0.137450,0.080245,1,1
2551,64,0.064220,0.102519,0.142865,0.125504,0.205829,0.172204,0.105169,1,1
2542,64,0.125103,0.156875,0.135403,0.082728,0.159115,0.183819,0.149073,1,1
2547,64,0.077596,0.169403,0.108322,0.148010,0.239406,0.158952,0.106799,1,1
2544,64,0.105320,0.084349,0.078468,0.066531,0.183522,0.116755,0.045009,1,1
2549,64,0.045846,0.086571,0.084923,0.136797,0.151705,0.173329,0.140926,1,1
2521,64,-0.074693,0.267258,0.133299,0.067800,0.156598,0.105290,0.108924,1,0
2526,64,-0.008916,0.183081,0.081746,0.121806,0.196723,0.173064,0.096741,1,1
2537,64,-0.020204,0.174934,0.151915,0.168530,0.136579,0.149236,0.101251,1,1
2522,64,0.029371,0.197619,0.057435,0.133724,0.179613,0.108482,0.142899,1,1
2554,64,0.114915,0.169754,0.111835,0.176233,0.107222,0.167706,0.109593,1,1
2533,64,-0.014116,0.185065,0.062497,0.179216,0.087186,0.103874,0.002257,1,1
2552,64,0.084261,0.159055,0.087634,0.109388,0.160559,0.155300,0.145827,1,1
2553,64,0.025770,0.187412,0.154699,0.146497,0.091628,0.235701,0.167576,1,1
2527,64,-0.042392,0.183955,0.128889,0.144682,0.110128,0.058660,0.133109,1,1
2530,64,0.011390,0.166236,0.037631,0.168274,0.134364,0.113222,0.140315,1,1
2541,64,0.068910,0.235362,0.096881,0.181514,0.269100,0.078300,0.093670,1,1
2539,64,-0.012409,0.220451,0.081032,0.172961,0.160719,0.082949,0.095684,1,1
2520,64,0.021525,0.178493,0.175446,0.129647,0.146885,0.152634,0.143208,1,1
2524,64,0.046807,0.238188,0.005643,0.087752,0.203839,0.113817,0.072626,1,1
2531,64,-0.031715,0.240165,0.172936,0.194793,0.137812,0.184493,0.104841,1,1
2523,64,0.044084,0.239346,0.153055,0.192634,0.136512,0.094852,0.177547,1,1
2538,64,0.061458,0.208871,0.092104,0.134363,0.149974,0.103300,0.070599,1,1
2550,64,0.121949,0.178845,0.184515,0.163015,0.161782,0.195712,0.136979,1,1
2540,64,0.011020,0.261180,0.127920,0.087384,0.206504,0.118260,0.059918,1,1
2548,64,0.033427,0.160114,0.089439,0.209182,0.207100,0.071284,0.130403,1,1
2559,64,0.005152,0.125865,0.127187,0.064514,0.235595,0.116204,0.157811,1,1
2534,64,-0.047300,0.123035,0.145305,0.198878,0.112577,0.259756,0.109775,1,1
2543,64,0.008821,0.183326,0.152879,0.095257,0.158516,0.226125,0.061106,1,1
2528,64,0.026455,0.190174,0.111089,0.157039,0.151081,0.132495,0.083807,1,1
2556,64,0.066468,0.202723,0.068957,0.132182,0.192750,0.164963,0.138436,1,1
2529,64,0.074371,0.243905,0.136298,0.155678,0.224481,0.179952,0.074579,1,1
2557,64,-0.048631,0.121047,0.026645,0.188975,0.080027,0.160963,0.114297,1,1
2545,64,0.009216,0.144939,0.144229,0.127102,0.144809,0.011071,-0.016423,1,1
2532,64,-0.055469,0.228918,0.125183,0.124761,0.204328,0.069590,0.011331,1,1
2535,64,0.093044,0.225436,0.067839,0.042064,0.133285,0.163388,0.096130,1,1
2574,65,0.011689,0.257660,0.162264,0.087997,0.182245,0.226024,0.136608,1,1
2561,65,0.085620,0.227366,0.134543,0.160572,0.133690,0.144158,0.181951,1,1
2568,65,-0.005201,0.238890,0.105778,0.156942,0.231051,0.145532,0.176275,1,1
2573,65,0.069124,0.169281,0.122980,0.238071,0.129977,0.136469,0.149772,1,1
2566,65,0.018149,0.229450,0.198570,0.089005,0.221292,0.129951,0.113379,1,1
2560,65,0.116133,0.235531,0.210098,0.149005,0.146033,0.115368,0.141483,1,1
2588,65,0.114521,0.241458,0.143792,0.146152,0.215010,0.109693,0.127301,1,1
2581,65,0.050990,0.200372,0.103894,0.191362,0.188720,0.165460,0.105736,1,1
2596,65,0.061870,0.159526,0.133451,0.165614,0.247877,0.298889,0.136608,1,1
2582,65,0.005406,0.278934,0.160174,0.225315,0.107586,0.107325,0.191292,1,1
2580,65,0.110683,0.198508,0.164610,0.151061,0.141342,0.182921,0.105092,1,1
2577,65,0.050752,0.112894,0.085441,0.155217,0.220688,0.149522,0.073093,1,1
2571,65,0.077367,0.277855,0.106862,0.119735,0.147415,0.112098,0.085347,1,1
2585,65,0.082891,0.171265,0.105839,0.132357,0.111812,0.065552,0.106774,1,1
2583,65,0.029545,0.119591,0.192735,0.191484,0.127626,0.092095,0.150227,1,1
2594,65,0.107447,0.178912,0.039461,0.081293,0.178317,0.217169,0.116280,1,1
2598,65,0.058978,0.156110,0.173095,0.151861,0.240266,0.114294,0.071341,1,1
2587,65,0.014273,0.126288,0.192360,0.156360,0.185620,0.250374,0.231036,1,1
2563,65,0.020849,0.232319,0.188513,0.192505,0.189900,0.121721,0.230413,1,1
2578,65,0.099577,0.131143,0.145084,0.114669,0.168278,0.187182,0.075971,1,1
2597,65,-0.074158,0.125862,0.107841,0.228806,0.204674,0.257614,0.162325,1,1
2595,65,0.091938,0.248122,0.178290,0.186863,0.233442,0.208089,0.120217,1,1
2591,65,0.009590,0.147902,0.129601,0.199259,0.080500,0.176566,0.115030,1,1
2592,65,0.065865,0.181548,0.156566,0.158695,0.216990,0.234173,0.260124,1,1
2589,65,0.069682,0.128204,0.053144,0.106148,0.284771,0.166200,0.053856,1,1
2572,65,0.067682,0.150491,0.133179,0.198371,0.100301,0.187219,0.155763,1,1
2586,65,0.013222,0.200622,0.086466,0.116455,0.054687,0.035635,0.062335,1,1
2565,65,-0.009003,0.197653,0.172033,0.189864,0.151590,0.092191,0.091947,1,1
2569,65,-0.011415,0.210088,0.110728,0.118132,0.163785,0.144928,0.093560,1,1
2584,65,0.104824,0.157030,0.127002,0.068981,0.093446,0.191523,0.085636,1,1
2567,65,0.106477,0.208509,0.125641,0.177321,0.264735,0.116218,0.101316,1,1
2570,65,0.088493,0.282549,0.084644,0.112149,0.099127,0.195899,0.114729,1,1
2590,65,0.027405,0.136072,0.045065,0.061014,0.196993,0.059922,-0.010406,1,1
2575,65,-0.011107,0.232572,0.089926,0.231210,0.249252,0.208164,0.169899,1,1
2599,65,-0.005552,0.116866,0.115478,0.121824,0.159445,0.145226,0.078801,1,1
2564,65,0.139410,0.200038,0.036081,0.157584,0.164561,0.127404,0.068803,1,1
2593,65,0.057984,0.167347,0.098973,0.135197,0.146403,0.210121,0.201352,1,1
2562,65,0.063039,0.193780,0.123402,0.172098,0.158376,0.205570,0.140056,1,1
2576,65,0.164152,0.152796,0.093341,0.132337,0.211271,0.141221,0.089126,1,1
2579,65,-0.007903,0.099321,0.124843,0.051083,0.214915,0.231793,0.140816,1,1
2628,66,0.093071,0.198859,0.023769,0.120546,0.158691,0.179834,0.105320,1,1
2614,66,0.096765,0.220309,0.193597,0.124854,0.186116,0.150645,0.042525,1,1
2626,66,0.002572,0.098158,0.210545,0.208628,0.196242,0.173091,0.144930,1,1
2625,66,0.034325,0.064592,0.184829,0.200239,0.213226,0.229624,0.103870,1,1
2634,66,0.075468,0.149270,0.129088,0.216123,0.213691,0.193895,0.106507,1,1
2631,66,0.122486,0.148714,0.066431,0.052773,0.186964,0.117068,0.144385,1,1
2608,66,0.049495,0.233494,0.078485,0.145877,0.174435,0.164779,0.072598,1,1
2617,66,-0.034069,0.306819,0.253278,0.172416,0.122105,0.166826,0.159090,1,0
2639,66,0.083892,0.198723,0.153231,0.155361,0.236089,0.178041,0.109472,1,1
2606,66,0.012238,0.223486,0.085759,0.179361,0.247925,0.143925,0.144847,1,1
2627,66,0.108859,0.103326,0.198246,0.148605,0.130659,0.213465,0.050763,1,1
2619,66,0.006188,0.256362,0.129792,0.191206,0.145172,0.134756,0.115699,1,1
2607,66,0.042937,0.214688,0.134719,0.158797,0.146344,0.111143,0.157118,1,1
2615,66,0.023131,0.212783,0.121378,0.208981,0.242109,0.158141,0.080903,1,1
2609,66,0.078480,0.228334,0.104422,0.196037,0.188535,0.120016,0.146118,1,1
2621,66,0.134800,0.168783,0.161089,0.118304,0.142642,0.102217,0.067024,1,1
2602,66,0.004222,0.149718,0.057236,0.158719,0.133897,0.087784,0.031520,1,1
2618,66,0.113836,0.239115,0.194116,0.137787,0.172787,0.156901,0.188418,1,1
2601,66,-0.018925,0.144330,0.198145,0.151456,0.240801,0.166368,0.107030,1,1
2630,66,0.170518,0.128604,0.128771,0.126351,0.266564,0.102748,0.091691,1,1
2622,66,0.122899,0.151843,0.216991,0.197103,0.235431,0.149727,0.188125,1,1
2611,66,0.081625,0.223752,0.149165,0.170669,0.182641,0.149595,0.051250,1,1
2603,66,0.081732,0.233801,0.099026,0.081170,0.166800,0.172412,0.138603,1,1
2636,66,0.117878,0.235577,0.152679,0.162816,0.275308,0.109230,0.147574,1,1
2624,66,0.168043,0.206190,0.203100,0.140518,0.109809,0.134702,0.129102,1,1
2605,66,0.123788,0.206594,0.118624,0.119177,0.210544,0.178742,0.109414,1,1
2633,66,0.120891,0.205765,0.109065,0.243013,0.282808,0.113967,0.179007,1,1
2623,66,0.107774,0.170640,0.126006,0.154206,0.205876,0.156774,0.119183,1,1
2637,66,0.041254,0.156952,0.085447,0.178118,0.136208,0.186006,0.168016,1,1
2610,66,0.049471,0.233679,0.063656,0.184089,0.189877,0.118703,0.172023,1,1
2612,66,0.039560,0.131381,0.118320,0.064161,0.088750,0.072360,0.164782,1,1
2613,66,0.025680,0.202590,0.173334,0.214708,0.090006,0.155280,0.013401,1,1
2635,66,0.123613,0.145637,0.120101,0.124177,0.219464,0.058378,0.113120,1,1
2604,66,0.015237,0.146368,0.094743,0.213510,0.295127,0.131477,0.141373,1,1
2616,66,0.087502,0.161663,0.173176,0.179848,0.229426,0.212241,0.018800,1,1
2600,66,0.053958,0.163410,0.165072,0.128311,0.141918,0.218563,0.124461,1,1
2638,66,0.095568,0.054656,0.111514,0.116714,0.183217,0.244551,0.087575,1,1
2620,66,0.057968,0.246277,0.145069,0.128785,0.259257,0.112747,0.169520,1,1
2632,66,0.009587,0.144335,0.135960,0.257128,0.146515,0.107118,0.095259,1,1
2629,66,-0.080318,0.091960,0.225384,0.223661,0.161161,0.169382,0.177050,0,1
2670,67,0.071110,0.313382,0.088201,0.172518,0.175896,0.210576,0.146903,1,1
2665,67,0.051581,0.269508,0.209340,0.111053,0.180012,0.228933,0.144724,1,1
2652,67,-0.111957,0.110250,0.047418,0.067223,0.185263,0.107326,0.104660,1,0
2653,67,0.077586,0.196233,0.146563,0.120361,0.131344,0.140778,0.142061,1,1
2674,67,0.085362,0.153176,0.146106,0.166945,0.210529,0.161240,0.148616,1,1
2648,67,0.114205,0.218277,0.201732,0.174586,0.121925,0.078823,0.029351,1,1
2679,67,0.096592,0.160570,0.182931,0.159375,0.154613,0.208263,0.135677,1,1
2649,67,-0.007851,0.084446,0.188575,0.146085,0.172627,0.132059,0.080771,1,1
2671,67,0.046825,0.158908,0.163002,0.190693,0.164536,0.134691,0.126309,1,1
2650,67,-0.070668,0.137707,0.097345,0.177620,0.200321,0.078359,0.046296,1,0
2646,67,0.046402,0.192733,0.106344,0.228133,0.183691,0.164635,0.074868,1,1
2657,67,0.136438,0.186996,0.192744,0.125727,0.209489,0.187726,0.104338,1,1
2640,67,0.065211,0.224227,0.148254,0.193131,0.148409,0.183417,0.119302,1,1
2676,67,0.080535,0.165564,0.211394,0.205274,0.188538,0.137281,0.169596,1,1
2660,67,0.024585,0.184354,0.127909,0.133276,0.207181,0.162744,0.215568,1,1
2662,67,0.165991,0.277269,0.212641,0.243963,0.207430,0.157627,0.122599,1,1
2654,67,0.037919,0.268828,0.125568,0.192019,0.112554,0.192278,0.078710,1,1
2664,67,0.121455,0.196081,0.168833,0.148754,0.151750,0.175931,0.221272,1,1
2659,67,0.081314,0.222624,0.143746,0.120878,0.169893,0.090320,0.158210,1,1
2658,67,0.148899,0.202759,0.085286,0.121499,0.205959,0.195167,0.163900,1,1
2644,67,0.012189,0.112056,0.090060,0.210115,0.114963,0.161210,0.158516,1,1
2663,67,0.142719,0.090270,0.151855,0.164643,0.115580,0.167879,0.119759,1,1
2647,67,0.030093,0.190048,0.124964,0.120450,0.110529,0.108242,0.158573,1,1
2667,67,0.050944,0.194167,0.136338,0.164861,0.279383,0.206954,0.140084,1,1
2645,67,0.112656,0.223950,0.165927,0.105174,0.152421,0.220144,0.090420,1,1
2651,67,0.041993,0.129032,0.087286,0.087358,0.195300,0.166121,0.149770,1,1
2642,67,0.071368,0.175272,0.163982,0.180931,0.229202,0.203925,0.132956,1,1
2672,67,0.128730,0.205075,0.109944,0.182602,0.083244,0.115725,0.152986,1,1
2678,67,0.076945,0.286180,0.136980,0.193540,0.200847,0.193043,0.107221,1,1
2673,67,0.057112,0.251645,0.156017,0.111162,0.236476,0.173869,0.173212,1,1
2668,67,0.115265,0.134526,0.114773,0.113177,0.240914,0.147030,0.027281,1,1
2661,67,0.092523,0.264943,0.182941,0.145495,0.157158,0.115994,0.109109,1,1
2669,67,0.119950,0.112190,0.181140,0.158639,0.235620,0.134579,0.202137,1,1
2677,67,0.139921,0.108532,0.141429,0.152315,0.104823,0.199588,0.173034,1,1
2641,67,0.066784,0.245246,0.226690,0.162213,0.235170,0.095852,0.124179,1,1
2655,67,0.055057,0.259995,0.080444,0.074293,0.196081,0.111825,0.127392,1,1
2675,67,0.142587,0.144045,0.250727,0.154804,0.147046,0.132033,0.130041,1,1
2656,67,-0.026255,0.150141,0.099542,0.237237,0.206870,0.106020,0.097334,1,1
2666,67,0.073238,0.135063,0.139847,0.135116,0.189977,0.164699,0.093141,1,1
2643,67,0.117930,0.333372,0.023931,0.200032,0.128214,0.160060,0.185222,1,0
2696,68,0.073691,0.254369,0.141450,0.138848,0.258868,0.093259,0.080545,1,1
2693,68,0.090074,0.181562,0.120452,0.181338,0.221659,0.305571,0.143781,1,1
2710,68,0.150963,0.155128,0.182630,0.153472,0.194183,0.148120,0.258855,1,1
2701,68,0.083789,0.148667,0.156343,0.106828,0.174241,0.104364,0.121488,1,1
2703,68,0.064683,0.171427,0.062851,0.141597,0.262501,0.148407,0.204833,1,1
2690,68,0.091106,0.218146,0.142109,0.154030,0.140330,0.129950,0.143806,1,1
2707,68,0.082340,0.169991,0.081376,0.159271,0.249266,0.182886,0.029602,1,1
2711,68,0.131666,0.167284,0.161190,0.220041,0.140256,0.248584,0.199037,1,1
2718,68,0.180099,0.235243,0.277631,0.182475,0.198487,0.146801,0.175408,1,1
2712,68,0.153863,0.239208,0.128504,0.263941,0.209775,0.167302,0.168741,1,1
2697,68,0.004707,0.171602,0.024708,0.211730,0.189274,0.161476,0.108101,1,1
2704,68,0.124758,0.124641,0.195555,0.140377,0.188863,0.157320,0.145328,1,1
2708,68,0.061364,0.198640,0.114416,0.181407,0.206405,0.163599,0.051823,1,1
2700,68,0.200081,0.145275,0.077095,0.108747,0.148619,0.154767,0.146188,1,1
2714,68,0.070256,0.191481,0.119651,0.197859,0.215963,0.181456,0.066247,1,1
2691,68,0.087955,0.230691,0.166644,0.144814,0.081934,0.086774,0.104891,1,1
2682,68,0.008760,0.208577,0.122335,0.077045,0.145271,0.136641,0.077082,1,1
2684,68,0.050241,0.189229,0.151294,0.215919,0.273734,0.203175,0.157245,1,1
2685,68,0.066902,0.166545,0.211872,0.157805,0.114879,0.179405,0.171251,1,1
2695,68,0.100091,0.198050,0.078154,0.065114,0.219089,0.156638,0.156907,1,1
2698,68,0.039661,0.189868,0.123248,0.142949,0.113201,0.197130,0.122084,1,1
2713,68,0.199177,0.195608,0.103763,0.186543,0.166298,0.181411,0.193276,1,1
2719,68,0.065470,0.157198,0.163307,0.195290,0.144753,0.239218,0.188421,1,1
2686,68,0.102975,0.192278,0.158971,0.179150,0.189082,0.168064,0.129263,1,1
2688,68,0.048583,0.108684,0.125292,0.103414,0.109361,0.117321,0.015195,1,1
2705,68,0.084130,0.034721,0.103824,0.195851,0.285784,0.209014,0.164841,0,1
2694,68,0.030953,0.180708,0.097628,0.232531,0.208543,0.079555,0.081841,1,1
2681,68,0.020175,0.247573,0.187337,0.159875,0.103357,0.184848,0.130821,1,1
2717,68,0.138768,0.144890,0.100979,0.113105,0.175915,0.127161,0.180171,1,1
2687,68,0.048657,0.135426,0.158581,0.254962,0.182714,0.134486,0.064973,1,1
2692,68,0.106899,0.279335,0.123813,0.155470,0.122183,0.162719,0.127876,1,1
2683,68,0.094561,0.143484,0.088895,0.089346,0.237910,0.168355,0.154811,1,1
2702,68,0.079458,0.107012,0.107690,0.238917,0.190121,0.123904,0.158070,1,1
2699,68,0.100535,0.151057,0.142867,0.188734,0.183092,0.190533,0.252069,1,1
2689,68,0.057990,0.199217,0.137410,0.169815,0.180199,0.161393,0.224745,1,1
2706,68,0.068281,0.136501,0.179995,0.117977,0.307673,0.071385,0.072630,1,1
2716,68,0.193163,0.228160,0.181945,0.124644,0.126947,0.142688,0.123024,1,1
2715,68,0.146488,0.096468,0.206796,0.156604,0.198022,0.301191,0.126486,1,1
2680,68,0.052946,0.214092,0.001984,0.117014,0.120607,0.117635,0.146270,1,1
2709,68,0.092624,0.313289,0.100031,0.130921,0.150539,0.180904,0.107711,1,1
2739,69,0.028976,0.088430,0.137562,0.166439,0.159801,0.090977,0.097808,1,1
2732,69,0.136016,0.151982,0.089445,0.232294,0.169425,0.166864,0.086901,1,1
2759,69,0.133356,0.238075,0.109821,0.172653,0.225590,0.151045,0.233971,1,1
2750,69,0.224204,0.208143,0.167876,0.174963,0.239862,0.172670,0.130241,0,1
2744,69,0.112606,0.171580,0.051590,0.208460,0.228642,0.169733,0.153622,1,1
2746,69,0.052883,0.156803,0.251723,0.270209,0.186067,0.172737,0.242515,1,1
2731,69,0.186371,0.183256,0.186009,0.077562,0.161121,0.170338,0.096670,1,1
2748,69,0.108020,0.176431,0.204828,0.229505,0.202788,0.191328,0.200933,1,1
2721,69,0.037288,0.257443,0.105953,0.185081,0.242809,0.203125,0.186346,1,1
2733,69,0.114865,0.190855,0.100209,-0.009720,0.114494,0.158227,0.238190,1,1
2756,69,0.195366,0.200765,0.147686,0.233084,0.193917,0.210832,0.190655,1,1
2728,69,-0.028563,0.202006,0.106188,0.108438,0.271862,0.166959,0.180196,1,0
2729,69,0.073555,0.145856,0.148907,0.107394,0.214493,0.209104,0.107330,1,1
2752,69,0.207504,0.139241,0.168810,0.170191,0.192118,0.209387,0.135493,0,1
2730,69,0.083307,0.169611,0.136828,0.188736,0.265706,0.096474,0.214716,1,1
2735,69,0.073554,0.148566,0.135528,0.138574,0.172771,0.070311,0.172908,1,1
2738,69,0.094914,0.190387,0.125946,0.195208,0.190420,0.082302,0.098527,1,1
2737,69,0.116952,0.210900,0.056471,0.140831,0.110440,0.166189,0.129732,1,1
2757,69,0.121059,0.147858,0.187438,0.202842,0.206601,0.191248,0.157640,1,1
2740,69,0.097807,0.208582,0.155622,0.168297,0.216883,0.183435,0.080055,1,1
2755,69,0.124860,0.199131,0.230626,0.103473,0.171131,0.135857,0.154647,1,1
2742,69,0.144552,0.165611,0.046040,0.139421,0.150823,0.179784,0.119552,1,1
2741,69,0.144570,0.180063,0.233340,0.227670,0.188775,0.209497,0.140459,1,1
2723,69,0.212692,0.123808,0.113279,0.155512,0.248575,0.160488,0.105241,1,1
2743,69,0.124441,0.209465,0.150720,0.155932,0.179194,0.103088,0.098694,1,1
2751,69,0.007363,0.217549,0.087202,0.190760,0.090358,0.176821,0.155779,1,1
2725,69,0.115667,0.162012,0.107227,0.046254,0.191050,0.150821,0.175465,1,1
2758,69,0.121491,0.162706,0.086084,0.190397,0.097053,0.220921,0.196910,1,1
2745,69,0.057869,0.207331,0.149121,0.163724,0.129011,0.166714,0.169087,1,1
2727,69,-0.032971,0.220004,0.145341,0.210382,0.136471,0.261143,0.199904,1,0
2736,69,0.046565,0.193973,0.052148,0.233753,0.144285,0.240522,0.165542,1,1
2747,69,0.223023,0.147780,0.114353,0.189956,0.184343,0.124187,0.132434,0,1
2734,69,0.077626,0.259390,0.109083,0.134555,0.237409,0.116648,0.079063,1,1
2724,69,0.117350,0.176042,0.099175,0.123139,0.251582,0.195450,0.127345,1,1
2720,69,0.103247,0.157144,0.066171,0.079502,0.177008,0.182586,0.189608,1,1
2726,69,0.051488,0.202904,0.135455,0.145670,0.110608,0.113454,0.081034,1,1
2754,69,0.061078,0.228226,0.164362,0.181896,0.159724,0.143448,0.220253,1,1
2722,69,0.077565,0.105172,0.179929,0.148336,0.264526,0.249425,0.080305,1,1
2749,69,0.150231,0.206110,0.105497,0.136704,0.105979,0.229788,0.154899,1,1
2753,69,0.055428,0.160967,0.143949,0.209906,0.251574,0.145202,0.023097,1,1
2785,70,0.160385,0.141740,0.169379,0.159491,0.228899,0.207807,0.174162,1,1
2787,70,0.038158,0.177299,0.154241,0.113740,0.232448,0.149498,0.126127,1,1
2761,70,0.088469,0.162576,0.082756,0.087444,0.223951,0.147509,0.073494,1,1
2784,70,0.165976,0.184595,0.126811,0.215322,0.152422,0.174227,0.139664,1,1
2789,70,0.058640,0.208166,0.234667,0.186766,0.285425,0.215627,0.107009,1,1
2765,70,0.117901,0.230948,0.100476,0.140971,0.166234,0.117331,0.150013,1,1
2781,70,0.190335,0.265519,0.187520,0.184924,0.110819,0.207458,0.217007,1,1
2767,70,0.046005,0.223117,0.204535,0.131218,0.123343,0.183173,0.115820,1,1
2790,70,0.168565,0.197633,0.146583,0.225093,0.235944,0.242979,0.201578,1,1
2775,70,0.062538,0.128490,0.196275,0.194661,0.145819,0.231760,0.043267,1,1
2791,70,0.114189,0.157799,0.204004,0.124167,0.136439,0.213414,0.144078,1,1
2799,70,0.133444,0.207365,0.141276,0.216422,0.182392,0.124238,0.119540,1,1
2766,70,0.078246,0.227494,0.178566,0.175908,0.197967,0.229423,0.107771,1,1
2769,70,0.190328,0.153899,0.247343,0.091811,0.129860,0.150129,0.075852,1,1
2760,70,0.027965,0.190997,0.131193,0.262339,0.192356,0.158917,0.066282,1,1
2780,70,0.109829,0.148016,0.007651,0.183363,0.199066,0.161253,0.151966,1,1
2792,70,0.132297,0.102365,0.169689,0.144144,0.214939,0.122537,0.121433,1,1
2774,70,-0.097528,0.156918,0.120156,0.156728,0.235302,0.044577,0.179841,1,0
2776,70,0.109588,0.236464,0.154199,0.181257,0.150727,0.056038,0.072842,1,1
2770,70,0.028880,0.193794,0.141474,0.171311,0.216922,0.071750,0.156530,1,1
2778,70,0.069188,0.246378,0.094664,0.221724,0.165324,0.159977,0.146256,1,1
2771,70,0.187744,0.233810,0.085758,0.079934,0.144236,0.110054,0.081731,1,1
2786,70,0.132809,0.228338,0.185921,0.117476,0.187849,0.222627,0.175486,1,1
2772,70,0.110407,0.180376,0.218062,0.148021,0.184742,0.152900,0.107502,1,1
2773,70,0.149609,0.171168,0.141903,0.180796,0.162836,0.235825,0.135410,1,1
2764,70,0.047124,0.101422,0.117768,0.190311,0.172754,0.140792,0.137612,1,1
2762,70,0.098297,0.149246,0.130052,0.168769,0.265490,0.163573,0.147424,1,1
2798,70,0.174541,0.152194,0.082561,0.142422,0.165302,0.110167,0.181998,1,1
2788,70,0.119936,0.160924,0.175540,0.076734,0.252958,0.080316,0.187932,1,1
2795,70,0.130224,0.046457,0.179201,0.124007,0.248029,0.162751,0.059770,0,1
2793,70,0.154088,0.144570,0.105482,0.162070,0.160432,0.174812,0.210218,1,1
2782,70,0.117613,0.193564,0.207803,0.123878,0.275781,0.128422,0.003657,1,1
2796,70,0.212955,0.203679,0.197336,0.156554,0.167765,0.124321,0.068715,1,1
2768,70,-0.016641,0.109350,0.094669,0.153843,0.261904,0.146748,0.220307,1,0
2779,70,0.072061,0.231119,0.122765,0.143110,0.169953,0.184759,0.030795,1,1
2777,70,0.085781,0.193340,0.126654,0.115238,0.257912,0.179499,0.194504,1,1
2783,70,0.128098,0.061466,0.149377,0.107853,0.256700,0.194392,0.171189,1,1
2797,70,0.215609,0.176043,0.222201,0.275150,0.206840,0.169441,0.103730,1,1
2794,70,0.103797,0.156218,0.168256,0.256883,0.209213,0.225329,0.206108,1,1
2763,70,0.025481,0.118870,0.184438,0.154169,0.219263,0.110286,0.104270,1,1
2807,71,0.088985,0.161079,0.207225,0.175361,0.223614,0.119888,0.159408,1,1
2802,71,0.190518,0.169717,0.193996,0.145332,0.162160,0.158177,0.135221,1,1
2825,71,0.118422,0.196362,0.209455,0.194688,0.215134,0.136666,0.203874,1,1
2811,71,0.081672,0.231670,0.167396,0.186376,0.120095,0.168615,0.089623,1,1
2823,71,0.046567,0.190496,0.192126,0.140693,0.152268,0.199621,0.102559,1,1
2833,71,0.059167,0.150873,0.170491,0.139563,0.229558,0.210936,0.093828,1,1
2814,71,0.094558,0.204449,0.065738,0.137903,0.187294,0.168033,0.178465,1,1
2830,71,0.203290,0.178872,0.161389,0.084862,0.171308,0.031824,0.137162,1,1
2813,71,0.093872,0.182006,0.154590,0.191713,0.229743,0.120122,0.095936,1,1
2817,71,0.100183,0.195472,0.045252,0.159992,0.166703,0.114444,0.194406,1,1
2829,71,0.089848,0.231455,0.172535,0.165348,0.226244,0.216119,0.227285,1,1
2822,71,0.069695,0.133509,0.111504,0.118856,0.288483,0.218555,0.122235,1,1
2835,71,0.033343,0.215929,0.149205,0.161554,0.292647,0.213136,0.190153,1,1
2815,71,0.089471,0.176132,0.163407,0.269137,0.162392,0.180624,0.214525,1,1
2812,71,0.116590,0.225461,0.177091,0.162482,0.249207,0.127099,0.185614,1,1
2800,71,0.080923,0.215641,0.129889,0.171188,0.206979,0.228647,0.057985,1,1
2836,71,0.133612,0.140842,0.163309,0.245043,0.205617,0.168077,0.174158,1,1
2818,71,-0.024905,0.175411,0.125213,0.221150,0.184654,0.142340,0.130825,1,0
2810,71,0.200566,0.292655,0.165839,0.244808,0.130486,0.190809,0.073112,1,1
2828,71,0.141734,0.206553,0.262366,0.055849,0.227748,0.187343,0.173913,1,1
2838,71,0.147948,0.145078,0.098550,0.133436,0.262313,0.203770,0.231365,1,1
2821,71,0.091667,0.121446,0.252016,0.096497,0.157617,0.159439,0.084255,1,1
2808,71,0.059189,0.265667,0.149531,0.083056,0.220430,0.175850,0.177850,1,1
2809,71,0.055001,0.196816,0.102738,0.097356,0.150179,0.150378,0.117128,1,1
2832,71,0.140509,0.227876,0.178315,0.265292,0.235986,0.308455,0.209324,1,1
2834,71,0.164001,0.195993,0.175132,0.182341,0.199490,0.197711,0.160102,1,1
2806,71,0.081730,0.179534,0.249163,0.225724,0.137105,0.277671,0.066561,1,1
2831,71,0.090636,0.249747,0.207293,0.191678,0.221621,0.192629,0.232425,1,1
2824,71,0.119980,0.079849,0.180590,0.160697,0.223793,0.285313,0.179514,1,1
2826,71,0.173344,0.239693,0.234365,0.155601,0.177036,0.170489,0.167037,1,1
2801,71,0.050321,0.187335,0.111561,0.118952,0.152007,0.141922,0.192194,1,1
2805,71,0.061028,0.196716,0.162239,0.224130,0.195899,0.177864,0.270433,1,1
2820,71,0.225257,0.130044,0.158006,0.145941,0.236263,0.224604,0.207594,0,1
2816,71,0.058423,0.191093,0.110238,0.125858,0.134177,0.173036,0.135893,1,1
2827,71,0.064581,0.224211,0.190378,0.179265,0.265640,0.084100,0.112616,1,1
2837,71,0.023369,0.124075,0.208816,0.183283,0.254647,0.188809,0.094557,1,1
2819,71,0.084225,0.130115,0.222562,0.266808,0.288627,0.194688,0.071220,1,1
2839,71,0.162023,0.091957,0.194859,0.232335,0.224770,0.218179,0.152863,1,1
2803,71,0.043568,0.345163,0.166297,0.183674,0.205837,0.137868,0.091076,1,0
2804,71,0.071141,0.176117,0.089870,0.145031,0.072557,0.132724,0.078923,1,1
2855,72,0.154667,0.168686,0.137768,0.233959,0.267910,0.161075,0.118831,1,1
2841,72,0.007642,0.169674,0.186310,0.171883,0.207809,0.169230,0.148244,1,1
2858,72,0.055850,0.250871,0.182858,0.202115,0.234741,0.102473,0.075936,1,1
2846,72,0.028356,0.186819,0.165461,0.127973,0.068657,0.150161,0.055028,1,1
2867,72,0.045258,0.166152,0.103435,0.147760,0.137328,0.265962,0.136929,1,1
2876,72,0.157040,0.175612,0.232627,0.239825,0.246579,0.252566,0.163403,1,1
2873,72,0.167177,0.139742,0.215854,0.247418,0.221340,0.149847,0.190698,1,1
2851,72,0.079582,0.185850,0.063766,0.143933,0.206342,0.147643,0.172461,1,1
2844,72,0.076671,0.213634,0.138852,0.150305,0.136743,0.158538,0.148716,1,1
2879,72,0.141105,0.193278,0.112523,0.202910,0.262517,0.242886,0.110472,1,1
2864,72,0.183162,0.136724,0.142319,0.144621,0.231003,0.191160,0.125620,1,1
2862,72,0.165463,0.220059,0.164170,0.243035,0.167355,0.182034,0.156001,1,1
2850,72,0.032155,0.141810,0.180662,0.117374,0.248039,0.203560,0.147190,1,1
2848,72,0.172107,0.241738,0.204572,0.161989,0.148863,0.166043,0.119805,1,1
2871,72,0.102384,0.158696,0.254394,0.187118,0.254257,0.090713,0.180526,1,1
2870,72,0.236151,0.194154,0.133211,0.255910,0.176760,0.203342,0.153939,1,1
2860,72,0.114884,0.173953,0.203111,0.149304,0.277526,0.180000,0.100431,1,1
2869,72,0.194157,0.195832,0.169619,0.193456,0.189096,0.180318,0.133571,1,1
2856,72,0.089038,0.137105,0.054310,0.192721,0.144035,0.073267,0.063577,1,1
2842,72,0.161854,0.217260,0.116434,0.131690,0.137798,0.111239,0.105661,1,1
2875,72,0.157720,0.208984,0.152520,0.193150,0.331549,0.090326,0.162684,1,1
2847,72,0.077761,0.170206,0.160284,0.210688,0.094665,0.229585,0.105210,1,1
2843,72,0.160364,0.137677,0.182571,0.179470,0.199015,0.208099,0.147208,1,1
2877,72,0.093034,0.229098,0.149463,0.127303,0.243223,0.185869,0.153188,1,1
2874,72,0.129447,0.156333,0.065927,0.228265,0.186723,0.178346,0.148585,1,1
2845,72,0.099352,0.109262,0.070102,0.218993,0.170365,0.244055,0.113908,1,1
2866,72,0.201972,0.104787,0.150350,0.140079,0.201710,0.151940,0.194539,1,1
2861,72,0.251631,0.079512,0.116783,0.257327,0.147535,0.073616,0.101851,0,1
2854,72,0.087721,0.152728,0.068216,0.236440,0.126288,0.163226,0.136606,1,1
2859,72,0.021412,0.214273,0.068387,0.168490,0.261174,0.119726,0.199968,1,1
2865,72,0.104259,0.195485,0.188487,0.139318,0.140404,0.164080,0.240782,1,1
2878,72,0.151511,0.123772,0.240163,0.202300,0.207847,0.241280,0.110014,1,1
2872,72,0.122032,0.225405,0.146134,0.153710,0.122870,0.213034,0.026151,1,1
2868,72,0.097641,0.228348,0.127003,0.163617,0.218093,0.229427,0.122573,1,1
2853,72,0.008620,0.274774,0.197273,0.198714,0.106903,0.089327,0.133266,1,0
2857,72,0.152466,0.231022,0.085109,0.108542,0.229982,0.218346,0.109628,1,1
2840,72,0.152615,0.258274,0.147104,0.159650,0.258441,0.185658,0.236759,1,1
2849,72,0.081380,0.196853,0.097845,0.132333,0.244245,0.167915,0.075161,1,1
2863,72,0.221300,0.200155,0.162450,0.253198,0.219084,0.145572,0.223561,1,1
2852,72,0.043971,0.136722,0.059522,0.178234,0.118937,0.087973,0.141308,1,1
2893,73,0.179815,0.177948,0.212091,0.210692,0.272761,0.201793,0.177041,1,1
2894,73,-0.007261,0.279550,0.094859,0.133269,0.198707,0.216721,0.148267,1,0
2905,73,0.109819,0.063319,0.121264,0.128631,0.145892,0.112348,0.192172,1,1
2901,73,0.168203,0.177661,0.126610,0.216009,0.202326,0.156540,0.150774,1,1
2891,73,0.055275,0.243754,0.131639,0.209022,0.121623,0.140433,0.047255,1,1
2882,73,0.061163,0.154056,0.192803,0.192673,0.191955,0.126508,0.179240,1,1
2880,73,0.141247,0.155118,0.120843,0.189402,0.270667,0.099293,0.086621,1,1
2918,73,0.128038,0.257028,0.172575,0.204350,0.127808,0.186313,0.153990,1,1
2890,73,0.066837,0.201063,0.167666,0.256377,0.310102,0.154502,0.106694,1,1
2919,73,0.175176,0.164200,0.092447,0.090008,0.225780,0.183961,0.174166,1,1
2883,73,0.125125,0.241058,0.236384,0.143118,0.057426,0.130374,0.161964,1,1
2895,73,0.110480,0.148802,0.138421,0.132295,0.174536,0.259687,0.242967,1,1
2881,73,0.103806,0.264387,0.170426,0.187921,0.191407,0.256332,0.094472,1,1
2909,73,0.151353,0.227011,0.153518,0.189886,0.213639,0.049655,0.157476,1,1
2913,73,0.136569,0.235065,0.148188,0.212023,0.175208,0.229850,0.127491,1,1
2888,73,0.229810,0.216733,0.130322,0.116097,0.198934,0.127971,0.174534,1,1
2904,73,0.224165,0.222661,0.216577,0.255027,0.152322,0.199078,0.210158,1,1
2910,73,0.127880,0.198479,0.015612,0.223869,0.050862,0.050063,0.187240,1,1
2912,73,0.126725,0.228067,0.160706,0.220618,0.176074,0.207287,0.184734,1,1
2889,73,0.070209,0.302291,0.205070,0.176090,0.171571,0.170698,0.140505,1,0
2916,73,0.244272,0.218712,0.035855,0.118278,0.267887,0.291600,0.176338,1,1
2914,73,0.190941,0.230663,0.135158,0.276853,0.143518,0.175620,0.180004,1,1
2886,73,0.109940,0.176504,0.199329,0.220754,0.164884,0.232136,0.141747,1,1
2908,73,0.162904,0.219645,0.087981,0.211304,0.188267,0.236180,0.173274,1,1
2885,73,0.183747,0.139631,0.120004,0.163932,0.170632,0.158324,0.185489,1,1
2906,73,0.228718,0.172945,0.084940,0.124195,0.228930,0.228285,0.100134,1,1
2884,73,0.156757,0.192344,0.156902,0.048105,0.242591,0.163433,0.133079,1,1
2902,73,0.102603,0.067603,0.111062,0.169425,0.205731,0.234767,0.195422,1,1
2903,73,0.117048,0.170078,0.094389,0.162914,0.195794,0.184802,0.145827,1,1
2911,73,0.166454,0.117568,0.183778,0.114876,0.241340,0.133663,0.137992,1,1
2887,73,0.088934,0.188634,0.125551,0.177593,0.196042,0.153140,0.196473,1,1
2897,73,0.159106,0.151833,0.088541,0.256665,0.187906,0.247754,0.225767,1,1
2898,73,0.128166,0.185850,0.064182,0.200299,0.249669,0.189920,0.116913,1,1
2900,73,0.052350,0.129897,0.146635,0.166898,0.144822,0.234996,0.177043,1,1
2899,73,0.094646,0.205156,0.206629,0.152443,0.212594,0.123863,0.153102,1,1
2892,73,0.061799,0.118782,0.192652,0.187992,0.276433,0.155880,0.040049,1,1
2917,73,0.200785,0.216223,0.077814,0.197881,0.179393,0.133704,0.087546,1,1
2907,73,0.152831,0.259959,0.141256,0.237798,0.225580,0.092507,0.272340,1,1
2915,73,0.152942,0.169708,0.170657,0.162575,0.180700,0.093427,0.143996,1,1
2896,73,0.000369,0.243374,0.145882,0.033423,0.225637,0.192107,0.068556,1,0
2926,74,0.041463,0.303059,0.167811,0.257805,0.162816,0.228107,0.099490,1,0
2943,74,0.115688,0.282485,0.141974,0.113740,0.180499,0.119280,0.166886,1,1
2920,74,0.114370,0.189146,0.143980,0.180781,0.246555,0.207886,0.155327,1,1
2930,74,0.142735,0.215435,0.122704,0.233007,0.155066,0.267857,0.229304,1,1
2945,74,0.128619,0.142930,0.179841,0.273989,0.200998,0.153425,0.189855,1,1
2937,74,0.095351,0.233205,0.150637,0.166614,0.198770,0.106741,0.090088,1,1
2938,74,0.169836,0.329507,0.214978,0.219429,0.171775,0.176467,0.118354,1,0
2950,74,0.182830,0.166847,0.204825,0.135709,0.198492,0.176365,0.060993,1,1
2931,74,0.087645,0.168569,0.184780,0.187205,0.195798,0.218691,0.175609,1,1
2948,74,0.173087,0.152130,0.202988,0.164937,0.154172,0.177364,0.204169,1,1
2933,74,0.137975,0.185674,0.166202,0.133270,0.239178,0.201061,0.197213,1,1
2946,74,0.197706,0.165434,0.241438,0.216140,0.238624,0.179710,0.160515,1,1
2939,74,0.194971,0.199526,0.168532,0.148376,0.202335,0.182953,0.118018,1,1
2932,74,0.100983,0.181684,0.199517,0.248747,0.206778,0.115853,0.211925,1,1
2936,74,0.097640,0.177433,0.238695,0.110135,0.249662,0.266028,0.106905,1,1
2935,74,0.127357,0.188639,0.085749,0.216814,0.228438,0.274621,0.171646,1,1
2922,74,0.067752,0.234709,0.109176,0.164823,0.244195,0.086241,0.215926,1,1
2934,74,0.092554,0.155366,0.137049,0.053416,0.225927,0.158933,0.221968,1,1
2958,74,0.151176,0.155957,0.188458,0.189827,0.229621,0.277038,0.118892,1,1
2959,74,0.186543,0.186521,0.169099,0.236728,0.232203,0.185882,0.080588,1,1
2940,74,0.199179,0.178965,0.254481,0.211609,0.122128,0.145482,0.215286,1,1
2944,74,0.215161,0.216749,0.174643,0.119085,0.171008,0.088296,0.230606,1,1
2956,74,0.118548,0.092898,0.192782,0.135158,0.208713,0.258109,0.172410,1,1
2928,74,0.119864,0.146046,0.168064,0.180177,0.239847,0.217124,0.166558,1,1
2953,74,0.050144,0.161222,0.214006,0.215903,0.314441,0.187201,0.138410,1,1
2949,74,0.228252,0.167311,0.141967,0.159405,0.266804,0.238454,0.188201,1,1
2923,74,0.124438,0.140000,0.135141,0.117224,0.158781,0.209224,0.165987,1,1
2951,74,0.244877,0.160087,0.052295,0.260203,0.239644,0.213114,0.107034,1,1
2954,74,0.109111,0.130404,0.278620,0.130683,0.189445,0.251334,0.185981,1,1
2957,74,0.098666,0.198698,0.155769,0.136923,0.252307,0.163040,0.205598,1,1
2955,74,0.189732,0.175789,0.098837,0.143606,0.167866,0.231181,0.103351,1,1
2925,74,0.078768,0.279179,0.134068,0.205626,0.205001,0.264496,0.126720,1,1
2942,74,0.103831,0.292120,0.184788,0.260608,0.167287,0.143725,0.102489,1,1
2927,74,0.133456,0.223569,0.156486,0.238938,0.187940,0.011094,0.236699,1,1
2924,74,0.086225,0.140093,0.185114,0.214168,0.231802,0.109878,0.138178,1,1
2947,74,0.113745,0.159764,0.232688,0.161466,0.169063,0.242175,0.159267,1,1
2929,74,0.108096,0.171114,0.252491,0.112039,0.251076,0.158402,0.078949,1,1
2921,74,0.061602,0.216139,0.160363,0.164681,0.189847,0.181729,0.124208,1,1
2952,74,0.119286,0.172932,0.173436,0.249588,0.277977,0.166871,0.184851,1,1
2941,74,0.169160,0.123695,0.151985,0.141166,0.195147,0.231047,0.142851,1,1
2974,75,0.152395,0.140458,0.118156,0.170357,0.295648,0.171477,0.089366,1,1
2960,75,0.267337,0.155448,0.191332,0.252539,0.180600,0.217062,0.017777,1,1
2985,75,0.143295,0.133608,0.142912,0.146865,0.263895,0.157641,0.140410,1,1
2991,75,0.070592,0.124097,0.189602,0.221193,0.221728,0.174385,0.145169,1,1
2966,75,0.096675,0.119122,0.165879,0.252390,0.074195,0.196058,0.162764,1,1
2982,75,0.120102,0.206070,0.183003,0.157100,0.140842,0.127468,0.276965,1,1
2971,75,0.060291,0.247417,0.150875,0.190867,0.134189,0.155768,0.201655,1,1
2976,75,0.100538,0.102003,0.191181,0.203392,0.258752,0.167213,0.106148,1,1
2996,75,0.201901,0.199333,0.141357,0.290784,0.179973,0.160667,0.043770,1,1
2983,75,0.167893,0.198686,0.085708,0.262588,0.251282,0.162986,0.125686,1,1
2989,75,0.161376,0.082189,0.092292,0.138508,0.174054,0.055289,0.231636,1,1
2964,75,0.179874,0.255817,0.195589,0.132630,0.203976,0.132977,0.146605,1,1
2986,75,0.122284,0.224351,0.222633,0.191958,0.153931,0.106680,0.171097,1,1
2970,75,0.140088,0.226864,0.177850,0.192661,0.104980,0.145325,0.179990,1,1
2963,75,0.149983,0.260498,0.252319,0.281039,0.152977,0.077779,0.147524,1,1
2977,75,0.170617,0.201799,0.111890,0.213860,0.179513,0.207764,0.157068,1,1
2962,75,0.034441,0.237644,0.139233,0.095487,0.110161,0.173759,0.245537,1,1
2995,75,0.154703,0.210339,0.125274,0.225053,0.251568,0.119866,0.174188,1,1
2988,75,0.066518,0.189158,0.147275,0.068174,0.157375,0.184032,0.155640,1,1
2980,75,0.168929,0.182267,0.161795,0.180736,0.231547,0.096237,0.106811,1,1
2965,75,0.211583,0.246420,0.158123,0.143968,0.203654,0.256799,0.128515,1,1
2997,75,0.092295,0.302029,0.218954,0.249016,0.234333,0.164939,0.167713,1,1
2967,75,0.112542,0.182443,0.114272,0.140116,0.319762,0.173107,0.250027,1,1
2973,75,0.162339,0.157057,0.206309,0.127675,0.124385,0.208398,0.158062,1,1
2972,75,0.221281,0.130511,0.141668,0.137626,0.241907,0.262402,0.192688,1,1
2992,75,0.140559,0.255228,0.171049,0.131450,0.270091,0.219879,0.097986,1,1
2981,75,0.088012,0.174993,0.267121,0.176646,0.129814,0.210071,0.184135,1,1
2961,75,0.241605,0.183599,0.134777,0.170179,0.208882,0.186161,0.156670,1,1
2990,75,0.102599,0.195382,0.208997,0.177272,0.212077,0.147359,-0.004762,1,1
2969,75,0.153688,0.240283,0.171628,0.183828,0.230897,0.130480,0.113369,1,1
2999,75,0.056123,0.163443,0.242317,0.185982,0.222333,0.162605,0.223529,1,1
2998,75,0.161579,0.231908,0.194925,0.173095,0.202621,0.240159,0.158173,1,1
2979,75,0.127730,0.194319,0.157158,0.252134,0.099936,0.227515,0.191339,1,1
2968,75,0.174625,0.177887,0.195856,0.124492,0.118621,0.133990,0.207457,1,1
2975,75,0.105344,0.256834,0.171926,0.203822,0.233996,0.128304,0.235792,1,1
2993,75,0.138729,0.155425,0.167093,0.162819,0.249965,0.147951,0.084404,1,1
2987,75,0.226847,0.144197,0.213184,0.161461,0.151017,0.029463,0.110393,1,1
2994,75,0.113265,0.128196,0.144985,0.130214,0.240663,0.269039,0.182461,1,1
2978,75,0.073441,0.192377,0.200612,0.159536,0.139425,0.206670,0.190309,1,1
2984,75,0.097394,0.207265,0.170295,0.180584,0.223096,0.140374,0.147546,1,1
3015,76,0.153225,0.162098,0.166064,0.211624,0.181785,0.231380,0.162081,1,1
3021,76,0.123302,0.138647,0.196955,0.177112,0.193957,0.243730,0.163429,1,1
3030,76,0.091301,0.173243,0.154073,0.182186,0.180929,0.187450,0.153180,1,1
3009,76,0.132014,0.228072,0.253240,0.286562,0.239149,0.221503,0.235171,1,1
3031,76,0.175361,0.165595,0.173799,0.124862,0.129001,0.172473,0.225731,1,1
3033,76,0.130151,0.132170,0.112930,0.220358,0.194082,0.197470,0.046713,1,1
3039,76,0.046919,0.230632,0.169067,0.214580,0.179795,0.092893,0.088753,1,1
3010,76,0.128531,0.231961,0.205841,0.230008,0.261063,0.151306,0.108378,1,1
3034,76,0.188625,0.079285,0.145000,0.127084,0.207461,0.142154,0.138205,1,1
3001,76,0.117944,0.255853,0.189828,0.204749,0.200356,0.160087,0.128813,1,1
3032,76,0.165026,0.172454,0.283664,0.286702,0.218330,0.322486,0.166350,1,1
3028,76,0.184071,0.190497,0.146412,0.217637,0.267118,0.214793,0.277168,1,1
3020,76,0.144360,0.186997,0.117139,0.178653,0.242570,0.192605,0.219197,1,1
3024,76,0.095355,0.185906,0.140888,0.181209,0.118700,0.123716,0.166348,1,1
3019,76,0.091867,0.179998,0.228305,0.172214,0.246223,0.180025,0.159641,1,1
3022,76,0.185804,0.247658,0.123387,0.165572,0.074208,0.182505,0.111763,1,1
3006,76,0.081648,0.159765,0.254990,0.213833,0.321944,0.184399,0.176176,1,1
3004,76,0.195805,0.160329,0.202629,0.201682,0.107505,0.200463,0.203811,1,1
3026,76,0.081113,0.187289,0.174271,0.175261,0.104975,0.268006,0.298246,1,1
3036,76,0.185688,0.093827,0.125445,0.159129,0.202539,0.114883,0.195949,1,1
3037,76,0.208787,0.174314,0.217852,0.240748,0.237240,0.146529,0.255702,1,1
3038,76,0.145664,0.287877,0.182060,0.197127,0.219651,0.188768,0.082412,1,1
3023,76,0.109016,0.242036,0.231007,0.261485,0.203200,0.233745,0.142448,1,1
3017,76,0.099126,0.315127,0.226719,0.176035,0.120876,0.244142,0.163319,1,0
3027,76,0.173376,0.140445,0.144044,0.135112,0.222005,0.212965,0.110111,1,1
3000,76,0.052218,0.185608,0.018722,0.132772,0.179785,0.281023,0.129677,1,1
3016,76,0.194494,0.264435,0.146551,0.137440,0.250773,0.258672,0.143486,1,1
3014,76,0.163048,0.242992,0.126252,0.226696,0.193515,0.259986,0.237923,1,1
3025,76,0.114737,0.167640,0.115486,0.152247,0.272132,0.175143,0.202924,1,1
3011,76,0.118921,0.208607,0.184079,0.270933,0.202587,0.161535,0.172071,1,1
3013,76,0.215967,0.263655,0.135837,0.199620,0.287992,0.191826,0.147389,1,1
3007,76,0.184527,0.153922,0.148758,0.233281,0.165229,0.229964,0.209720,1,1
3003,76,0.151857,0.255406,0.199857,0.158058,0.206979,0.217471,0.134391,1,1
3029,76,0.092410,0.260859,0.227372,0.209522,0.179380,0.172373,0.135878,1,1
3008,76,0.001236,0.193606,0.196662,0.210636,0.198632,0.149611,0.136763,1,1
3012,76,0.070076,0.249920,0.130166,0.161721,0.190775,0.148360,0.162838,1,1
3005,76,0.173776,0.225281,0.194476,0.155323,0.190018,0.289430,0.213680,1,1
3018,76,0.094768,0.167494,0.166449,0.188634,0.190990,0.201570,0.203314,1,1
3035,76,0.253532,0.216724,0.146012,0.175451,0.145764,0.174398,0.125459,1,1
3002,76,0.102233,0.141483,0.153238,0.111768,0.235222,0.256067,0.179008,1,1
3048,77,0.122599,0.188847,0.175429,0.203496,0.212060,0.251195,0.068078,1,1
3077,77,0.156169,0.234916,0.206966,0.144584,0.222174,0.148871,0.107276,1,1
3070,77,0.104170,0.077867,0.184568,0.232339,0.245810,0.133243,0.213124,1,1
3049,77,0.181908,0.182012,0.233093,0.254513,0.193470,0.207284,0.118516,1,1
3075,77,0.134839,0.120993,0.259352,0.195141,0.159632,0.173313,0.248042,1,1
3041,77,0.248636,0.239398,0.082927,0.167103,0.178603,0.168453,0.178838,1,1
3045,77,0.172781,0.240143,0.151151,0.100735,0.264676,0.233488,0.164350,1,1
3042,77,0.153953,0.113384,0.180475,0.316554,0.176008,0.186465,0.110184,1,1
3040,77,0.078238,0.272868,0.130552,0.177434,0.268854,0.269401,0.118680,1,1
3054,77,0.079221,0.209923,0.187931,0.223002,0.201770,0.124984,0.129958,1,1
3061,77,0.112549,0.260070,0.167842,0.125595,0.233520,0.103468,0.203408,1,1
3058,77,0.089234,0.212542,0.140715,0.245171,0.256270,0.308062,0.163175,1,1
3072,77,0.100348,0.148063,0.177606,0.248516,0.189290,0.211491,0.115840,1,1
3051,77,0.204211,0.236447,0.246758,0.243379,0.254289,0.196570,0.210699,1,1
3056,77,0.169739,0.187539,0.131240,0.209037,0.195700,0.124027,0.152676,1,1
3059,77,0.177083,0.244149,0.255299,0.071386,0.359652,0.246690,0.212514,1,1
3053,77,0.063631,0.260420,0.142112,0.251740,0.175619,0.246647,0.207372,1,1
3074,77,0.198801,0.195095,0.124196,0.145532,0.146406,0.140101,0.123538,1,1
3055,77,0.211438,0.178419,0.134656,0.150807,0.199405,0.223729,0.185368,1,1
3071,77,0.095748,0.212788,0.255065,0.164636,0.224443,0.193791,0.209928,1,1
3069,77,0.187971,0.227547,0.189989,0.180588,0.160454,0.257639,0.176889,1,1
3073,77,0.181782,0.135252,0.137847,0.213646,0.155508,0.227269,0.138977,1,1
3076,77,0.119929,0.084379,0.254705,0.267336,0.177727,0.194377,0.144201,1,1
3050,77,0.122370,0.206254,0.146530,0.191775,0.243598,0.251121,0.202514,1,1
3043,77,0.030092,0.214207,0.152410,0.203712,0.214821,0.203684,0.162052,1,1
3044,77,0.201526,0.184170,0.184481,0.197576,0.270395,0.164073,0.177574,1,1
3057,77,0.127590,0.229468,0.175287,0.249830,0.214277,0.137655,0.116434,1,1
3066,77,0.131171,0.109113,0.094464,0.152091,0.193027,0.165235,0.175297,1,1
3079,77,0.127500,0.202974,0.143706,0.274597,0.370531,0.145679,0.114075,1,1
3068,77,0.183837,0.230107,0.154240,0.177236,0.235819,0.207282,0.278048,1,1
3078,77,0.160776,0.186646,0.232857,0.179566,0.252249,0.238748,0.108705,1,1
3064,77,0.235313,0.101280,0.130320,0.237568,0.234521,0.184351,0.083299,1,1
3063,77,0.101755,0.199195,0.202261,0.191682,0.188791,0.228970,0.154986,1,1
3067,77,0.174127,0.258044,0.145778,0.265064,0.242311,0.204059,0.068448,1,1
3046,77,0.147831,0.127971,0.203820,0.114282,0.209476,0.163869,0.220356,1,1
3062,77,0.168150,0.187181,0.165662,0.166460,0.141538,0.219548,0.068727,1,1
3052,77,0.182636,0.195150,0.144398,0.204847,0.167752,0.300349,0.126458,1,1
3047,77,0.081907,0.232105,0.130345,0.209382,0.190863,0.147378,0.216007,1,1
3060,77,0.166219,0.170737,0.238603,0.211202,0.240865,0.156712,0.208431,1,1
3065,77,0.108322,0.163411,0.181320,0.156617,0.240490,0.102952,0.148918,1,1
3099,78,0.199970,0.172143,0.124774,0.237471,0.199935,0.213280,0.115288,1,1
3087,78,0.131599,0.162039,0.183341,0.302341,0.224512,0.085736,0.215779,1,1
3101,78,0.133500,0.237734,0.160241,0.194833,0.253152,0.211646,0.176250,1,1
3095,78,0.048172,0.292719,0.231382,0.144443,0.262422,0.132455,0.151004,1,0
3096,78,0.019792,0.265067,0.210237,0.187710,0.260190,0.238312,0.148605,1,0
3110,78,0.190162,0.162236,0.139055,0.219306,0.151696,0.167728,0.161931,1,1
3092,78,0.087337,0.158267,0.196811,0.192683,0.178764,0.181469,0.164683,1,1
3108,78,0.122340,0.191931,0.155337,0.232599,0.194158,0.209190,0.143654,1,1
3084,78,0.190572,0.206458,0.145780,0.219910,0.235582,0.108340,0.221645,1,1
3080,78,0.076136,0.219143,0.140465,0.149054,0.225699,0.181157,0.210878,1,1
3107,78,0.164116,0.090456,0.129737,0.199902,0.236074,0.221702,0.157979,1,1
3082,78,0.282618,0.209683,0.143515,0.119078,0.284244,0.389320,0.163971,1,1
3083,78,0.159455,0.227287,0.218124,0.202087,0.230918,0.188562,0.270655,1,1
3085,78,0.046162,0.113668,0.114683,0.197679,0.230484,0.229842,0.224442,1,1
3111,78,0.273310,0.208337,0.163892,0.287690,0.281339,0.188933,0.227863,1,1
3113,78,0.143049,0.249319,0.204513,0.193401,0.181882,0.203409,0.247649,1,1
3117,78,0.060449,0.142288,0.140990,0.162650,0.299167,0.192645,0.225177,1,1
3094,78,0.055461,0.188739,0.187115,0.195741,0.238144,0.189309,0.159103,1,1
3105,78,0.208405,0.267337,0.235977,0.215336,0.240648,0.200328,0.247975,1,1
3097,78,0.241103,0.219875,0.171693,0.270275,0.199469,0.244674,0.166813,1,1
3104,78,0.127559,0.157944,0.153226,0.134157,0.220923,0.152793,0.215196,1,1
3090,78,0.127276,0.237441,0.137301,0.150265,0.134279,0.177090,0.196123,1,1
3112,78,0.144412,0.095582,0.252965,0.044783,0.198561,0.142999,0.133233,1,1
3116,78,0.185439,0.087563,0.244558,0.153211,0.136789,0.197522,0.117774,1,1
3109,78,0.115113,0.172392,0.200174,0.263254,0.152761,0.111182,0.201980,1,1
3118,78,0.124087,0.142139,0.048222,0.195149,0.199828,0.172226,0.113478,1,1
3081,78,0.125039,0.159529,0.132019,0.160550,0.283277,0.226075,0.101315,1,1
3103,78,0.077786,0.137031,0.299174,0.227847,0.172550,0.201139,0.187452,1,1
3119,78,0.117374,0.096783,0.145782,0.228783,0.294433,0.198656,0.108983,1,1
3106,78,0.124539,0.162179,0.232714,0.169930,0.222008,0.184207,0.110460,1,1
3115,78,0.227550,0.121991,0.185542,0.155242,0.259939,0.191898,0.158995,1,1
3098,78,0.132786,0.235455,0.271401,0.195941,0.212755,0.215208,0.172337,1,1
3093,78,0.080402,0.255297,0.253552,0.147421,0.219671,0.142290,0.129449,1,1
3102,78,0.218976,0.170915,0.155008,0.213668,0.234631,0.247929,0.172475,1,1
3086,78,0.059238,0.154988,0.193326,0.200991,0.272417,0.212672,0.242915,1,1
3091,78,0.109991,0.168521,0.210581,0.145520,0.129531,0.210569,0.220278,1,1
3114,78,0.158003,0.145556,0.174271,0.220168,0.255194,0.180266,0.190389,1,1
3088,78,0.155717,0.156526,0.068217,0.237784,0.249113,0.166842,-0.006350,1,1
3089,78,0.190221,0.131004,0.086727,0.225004,0.253024,0.155775,0.198836,1,1
3100,78,0.199538,0.123743,0.227708,0.160150,0.255824,0.164981,0.127755,1,1
3146,79,0.147775,0.083845,0.059595,0.172607,0.152451,0.214879,0.156473,1,1
3153,79,0.182145,0.066197,0.175048,0.194857,0.221819,0.225829,0.165484,1,1
3156,79,0.057391,0.069374,0.257262,0.227841,0.302397,0.171308,0.095046,0,1
3154,79,0.110058,0.238585,0.124646,0.137649,0.227655,0.232833,0.134234,1,1
3140,79,0.076982,0.100824,0.145532,0.163014,0.116904,0.136306,0.130899,1,1
3149,79,0.117896,0.158597,0.261428,0.220248,0.271491,0.236558,0.154515,1,1
3121,79,0.180294,0.263729,0.203066,0.305279,0.262053,0.180302,0.219550,1,1
3138,79,0.123886,0.166068,0.271137,0.204425,0.231225,0.175465,0.169453,1,1
3152,79,0.169126,0.087732,0.182254,0.180344,0.179183,0.185003,0.195546,1,1
3141,79,0.199264,0.160929,0.163212,0.164425,0.223606,0.161214,0.176507,1,1
3139,79,0.111116,0.238482,0.096012,0.178780,0.238167,0.207470,0.234276,1,1
3123,79,0.195059,0.177678,0.215640,0.207781,0.238337,0.160190,0.308026,1,1
3150,79,0.158472,0.128581,0.112820,0.250636,0.294502,0.129177,0.128914,1,1
3136,79,0.137428,0.190556,0.206295,0.188575,0.271020,0.252232,0.130711,1,1
3145,79,0.140147,0.105090,0.214677,0.122882,0.216172,0.138806,0.144926,1,1
3151,79,0.176927,0.225876,0.137934,0.222137,0.238156,0.151442,0.155994,1,1
3147,79,0.172829,0.136855,0.193519,0.227992,0.141951,0.197810,0.097101,1,1
3126,79,0.177078,0.224428,0.198661,0.143645,0.193740,0.228803,0.211963,1,1
3130,79,0.100401,0.239212,0.167705,0.201167,0.238419,0.215554,0.224593,1,1
3124,79,0.188063,0.190765,0.146797,0.184760,0.341061,0.128963,0.169025,1,1
3158,79,0.135417,0.229920,0.234142,0.212566,0.259748,0.233889,0.144674,1,1
3135,79,0.137878,0.214996,0.171827,0.295785,0.260575,0.217446,0.181648,1,1
3127,79,0.126843,0.252847,0.152566,0.163110,0.253934,0.214920,0.240938,1,1
3125,79,0.172732,0.240980,0.250684,0.175903,0.307918,0.187486,0.191959,1,1
3144,79,0.146801,0.236999,0.198543,0.123648,0.161588,0.091814,0.196638,1,1
3133,79,0.121725,0.159634,0.198785,0.215942,0.118244,0.195211,0.150606,1,1
3128,79,0.204042,0.190230,0.233650,0.176095,0.268881,0.185103,0.160315,1,1
3129,79,0.097829,0.189561,0.127254,0.179125,0.266350,0.151858,0.252336,1,1
3120,79,0.252474,0.186212,0.185992,0.306881,0.212767,0.154423,0.188941,1,1
3155,79,0.214700,0.181454,0.213186,0.245536,0.185838,0.254303,0.230172,1,1
3137,79,0.163122,0.232112,0.134535,0.163565,0.203231,0.221977,0.187321,1,1
3132,79,0.111636,0.216503,0.143803,0.226378,0.159496,0.232904,0.224010,1,1
3159,79,0.205461,0.204383,0.105947,0.173882,0.235883,0.228164,0.198193,1,1
3134,79,0.209309,0.176317,0.170668,0.201286,0.226397,0.192787,0.165812,1,1
3131,79,0.205723,0.274615,0.253357,0.235223,0.239706,0.199962,0.139447,1,1
3148,79,0.140805,0.178272,0.240066,0.225146,0.198142,0.194546,0.078710,1,1
3143,79,0.116192,0.259438,0.161998,0.182877,0.159867,0.265367,0.189705,1,1
3157,79,0.082840,0.080040,0.187372,0.228931,0.220323,0.189599,0.209725,1,1
3122,79,0.114838,0.258286,0.188133,0.167213,0.307453,0.210328,0.230620,1,1
3142,79,0.179697,0.192374,0.234644,0.128152,0.251187,0.280989,0.204238,1,1
3183,80,0.190599,0.135261,0.130099,0.176197,0.266385,0.201176,0.172201,1,1
3170,80,0.166391,0.206956,0.198758,0.181070,0.188101,0.213049,0.234365,1,1
3197,80,0.175070,0.140273,0.271300,0.193982,0.211613,0.220875,0.161099,1,1
3171,80,0.138228,0.256626,0.124388,0.188274,0.220511,0.239817,0.224816,1,1
3163,80,0.156982,0.183923,0.135568,0.171910,0.218455,0.256692,0.145229,1,1
3164,80,0.183283,0.245609,0.209208,0.211688,0.215674,0.224043,0.131895,1,1
3175,80,0.181838,0.076648,0.121937,0.237260,0.337255,0.230800,0.169298,1,1
3167,80,0.143873,0.211985,0.119559,0.174063,0.232702,0.210803,0.268104,1,1
3195,80,0.122565,0.112804,0.170836,0.345511,0.295180,0.310920,0.135058,1,1
3165,80,0.093857,0.208083,0.178672,0.246588,0.177087,0.168184,0.153232,1,1
3174,80,0.135252,0.245780,0.155770,0.111445,0.181827,0.271093,0.191221,1,1
3184,80,0.124240,0.177946,0.222438,0.208304,0.157089,0.131406,0.253576,1,1
3186,80,0.053704,0.187830,0.172939,0.225693,0.262945,0.129517,0.200465,1,1
3188,80,0.101658,0.180435,0.138885,0.218301,0.270287,0.171788,0.104317,1,1
3193,80,0.152063,0.151171,0.179907,0.188655,0.236288,0.198908,0.177365,1,1
3182,80,0.188509,0.102405,0.127537,0.122356,0.213047,0.366673,0.152612,1,1
3189,80,0.099622,0.199858,0.127787,0.175629,0.245002,0.224957,0.117068,1,1
3198,80,0.183004,0.200097,0.226204,0.176198,0.242312,0.165935,0.229604,1,1
3168,80,0.167179,0.229281,0.172011,0.128089,0.208720,0.207942,0.192944,1,1
3178,80,0.206631,0.129668,0.164252,0.172727,0.230369,0.230115,0.071848,1,1
3173,80,0.090754,0.165870,0.104982,0.200670,0.224450,0.233299,0.288481,1,1
3166,80,0.123707,0.207714,0.120311,0.139702,0.269181,0.230169,0.233862,1,1
3190,80,0.179084,0.097028,0.142636,0.286681,0.257616,0.294377,0.119665,1,1
3194,80,0.132078,0.138781,0.125120,0.129262,0.250104,0.144834,0.079978,1,1
3196,80,0.167726,0.132777,0.182374,0.201926,0.183643,0.163420,0.298304,1,1
3176,80,0.064916,0.186563,0.140056,0.229883,0.255806,0.225402,0.212558,1,1
3181,80,0.196696,0.148718,0.042023,0.135939,0.250729,0.181466,0.169459,1,1
3180,80,0.121464,0.082819,0.161520,0.067584,0.234502,0.170215,0.156969,1,1
3160,80,0.059656,0.159704,0.119830,0.299674,0.238217,0.167429,0.143653,1,1
3179,80,0.155354,0.165177,0.230531,0.208945,0.189442,0.111420,0.192388,1,1
3185,80,0.162889,0.211445,0.142176,0.177564,0.185253,0.173033,0.192814,1,1
3191,80,0.175915,0.156100,0.253710,0.173299,0.337014,0.277638,0.136789,1,1
3187,80,0.189492,0.177122,0.213964,0.266431,0.194330,0.119955,0.093470,1,1
3177,80,0.072103,0.141912,0.241402,0.276680,0.218718,0.192465,0.169944,1,1
3169,80,0.221901,0.225505,0.232577,0.190046,0.197967,0.116773,0.189995,1,1
3162,80,0.248883,0.246899,0.146208,0.205050,0.191763,0.175595,0.130311,1,1
3172,80,0.099373,0.132068,0.156071,0.185528,0.270874,0.185052,0.277426,1,1
3161,80,0.105274,0.203504,0.156457,0.193323,0.157601,0.216615,0.142437,1,1
3199,80,0.076050,0.180504,0.131810,0.193832,0.163092,0.200960,0.200064,1,1
3192,80,0.170195,0.131452,0.116915,0.139349,0.187085,0.299293,0.172111,1,1
3218,81,0.195067,0.165710,0.160007,0.162634,0.136423,0.259947,0.143454,1,1
3216,81,0.113624,0.150886,0.157393,0.241782,0.172356,0.174481,0.206051,1,1
3209,81,0.133789,0.230386,0.138773,0.155460,0.218067,0.224795,0.078473,1,1
3210,81,0.170937,0.248437,0.078361,0.267595,0.217834,0.175438,0.148248,1,1
3215,81,0.207726,0.073599,0.188531,0.158258,0.254350,0.268629,0.103475,1,1
3211,81,0.100421,0.200913,0.198576,0.243377,0.231386,0.166956,0.140137,1,1
3225,81,0.170240,0.191525,0.183297,0.104044,0.221624,0.195484,0.160523,1,1
3200,81,0.193484,0.180603,0.165168,0.259884,0.315303,0.149464,0.188883,1,1
3236,81,0.170848,0.268390,0.180344,0.211322,0.340011,0.182075,0.264957,1,1
3227,81,0.316124,0.196583,0.175386,0.245641,0.314049,0.245201,0.221360,0,1
3239,81,0.145200,0.119196,0.149156,0.174789,0.213929,0.204819,0.213355,1,1
3231,81,0.170174,0.172906,0.215436,0.160270,0.150325,0.253632,0.174010,1,1
3201,81,0.206937,0.173089,0.159868,0.188070,0.201272,0.159219,0.113043,1,1
3224,81,0.182618,0.086868,0.105183,0.166831,0.259042,0.215563,0.106488,1,1
3206,81,0.136632,0.127031,0.164702,0.182028,0.315399,0.203974,0.170624,1,1
3220,81,0.095267,0.051541,0.128211,0.265233,0.352722,0.240264,0.172010,0,1
3228,81,0.218609,0.090039,0.166431,0.158199,0.184220,0.102338,0.218537,1,1
3221,81,0.141833,0.199533,0.230000,0.232519,0.253252,0.138559,0.041150,1,1
3204,81,0.172912,0.126129,0.069511,0.133718,0.248400,0.274211,0.179614,1,1
3238,81,0.219688,0.030023,0.180829,0.208767,0.177680,0.189509,0.190619,0,1
3205,81,0.287732,0.222165,0.231540,0.364414,0.281008,0.241591,0.142695,1,1
3207,81,0.129456,0.216425,0.207637,0.218033,0.213381,0.143095,0.232759,1,1
3212,81,0.125621,0.202402,0.186422,0.145680,0.243272,0.213136,0.150883,1,1
3223,81,0.181930,0.162654,0.164570,0.167703,0.234547,0.185482,0.209864,1,1
3230,81,0.106885,0.099617,0.163577,0.200219,0.264927,0.097152,0.091939,1,1
3219,81,0.233237,0.269747,0.136657,0.312215,0.302822,0.233452,0.120818,1,1
3217,81,0.148861,0.161969,0.155096,0.210673,0.312054,0.237271,0.183320,1,1
3226,81,0.222330,0.089567,0.278213,0.138704,0.238985,0.170769,0.225426,1,1
3203,81,0.116745,0.228584,0.237783,0.255160,0.308097,0.209925,0.186281,1,1
3213,81,0.167395,0.167353,0.166613,0.166776,0.266085,0.216192,0.203318,1,1
3208,81,0.289820,0.170783,0.219625,0.300448,0.305067,0.167703,0.245587,1,1
3229,81,0.209408,0.194893,0.202903,0.196997,0.196783,0.222009,0.171532,1,1
3234,81,0.095298,0.064690,0.233862,0.062989,0.300086,0.241785,0.121957,1,1
3235,81,0.129852,0.096342,0.185966,0.249934,0.174681,0.194008,0.257366,1,1
3214,81,0.163581,0.197268,0.291296,0.149657,0.232465,0.204590,0.160591,1,1
3222,81,0.121217,0.213707,0.137068,0.222728,0.225460,0.108765,0.223329,1,1
3232,81,0.219687,0.132894,0.155273,0.177250,0.164027,0.269440,0.265092,1,1
3237,81,0.150731,0.231654,0.217028,0.310606,0.231931,0.270318,0.046871,1,1
3233,81,0.150715,0.183234,0.089736,0.167657,0.326579,0.197201,0.110081,1,1
3202,81,0.108428,0.172389,0.219885,0.168774,0.241723,0.212948,0.285432,1,1
3262,82,0.147755,0.243050,0.188335,0.212409,0.273151,0.184149,0.039797,1,1
3278,82,0.174439,0.181204,0.158139,0.193192,0.175335,0.172507,0.142085,1,1
3276,82,0.219301,0.142549,0.201739,0.212087,0.266969,0.265738,0.258436,1,1
3275,82,0.207195,0.202389,0.196886,0.113710,0.164758,0.223633,0.160394,1,1
3249,82,0.112450,0.229901,0.077983,0.246773,0.187473,0.231347,0.227911,1,1
3263,82,0.190359,0.311117,0.165810,0.141236,0.263739,0.160590,0.212139,1,1
3248,82,0.245045,0.126305,0.178987,0.196713,0.249764,0.169770,0.181699,1,1
3245,82,0.161092,0.213984,0.141671,0.139294,0.264213,0.259076,0.195798,1,1
3243,82,0.192145,0.168203,0.167193,0.187220,0.270181,0.100462,0.189269,1,1
3271,82,0.115232,0.186866,0.228804,0.146823,0.237291,0.172766,0.151167,1,1
3270,82,0.252730,0.109372,0.233643,0.058463,0.118997,0.236544,0.136921,1,1
3247,82,0.192431,0.212916,0.139600,0.149273,0.223312,0.262613,0.141839,1,1
3277,82,0.206461,0.175432,0.175601,0.172112,0.279015,0.193272,0.108450,1,1
3265,82,0.171281,0.107312,0.067545,0.175738,0.217569,0.118616,0.159956,1,1
3266,82,0.140113,0.184614,0.155698,0.208424,0.228968,0.164150,0.163748,1,1
3273,82,0.168379,0.182277,0.190221,0.153527,0.159247,0.184186,0.101389,1,1
3279,82,0.203035,0.172030,0.199874,0.181398,0.234360,0.222355,0.148347,1,1
3260,82,0.133495,0.204510,0.192158,0.128154,0.145124,0.166680,0.239599,1,1
3255,82,0.153300,0.280033,0.229228,0.248452,0.260940,0.256933,0.180711,1,1
3242,82,0.198348,0.248192,0.223255,0.204861,0.267732,0.186072,0.112322,1,1
3251,82,0.161175,0.174215,0.144938,0.130538,0.222543,0.180543,0.166340,1,1
3253,82,0.148740,0.244575,0.144875,0.220666,0.295583,0.199717,0.214216,1,1
3274,82,0.162303,0.149353,0.193157,0.203401,0.235973,0.167483,0.142532,1,1
3252,82,0.198765,0.194686,0.153428,0.266017,0.081106,0.198213,0.123821,1,1
3261,82,0.175025,0.213937,0.175561,0.172157,0.331702,0.220514,0.135615,1,1
3241,82,0.102523,0.150004,0.185857,0.204697,0.285858,0.233428,0.139697,1,1
3264,82,0.181261,0.147987,0.168223,0.207599,0.215983,0.238812,0.123285,1,1
3259,82,0.143343,0.216703,0.099367,0.215684,0.303670,0.267957,0.098094,1,1
3267,82,0.114290,0.123757,0.112055,0.141810,0.159849,0.142898,0.121697,1,1
3254,82,0.094496,0.227761,0.138481,0.276122,0.274944,0.082131,0.162847,1,1
3257,82,0.083532,0.205283,0.203219,0.125694,0.192349,0.238151,0.260693,1,1
3256,82,0.118719,0.153711,0.220231,0.230399,0.241453,0.163683,0.137609,1,1
3240,82,0.202441,0.255999,0.166571,0.161804,0.305986,0.205885,0.236988,1,1
3268,82,0.233294,0.163581,0.231030,0.125027,0.182817,0.248091,0.239160,1,1
3244,82,0.242275,0.258649,0.243605,0.115349,0.285663,0.220273,0.121997,1,1
3258,82,0.128905,0.128290,0.207938,0.128510,0.325547,0.168236,0.142543,1,1
3246,82,0.033667,0.193890,0.253628,0.191870,0.293939,0.222862,0.269599,1,1
3250,82,0.145330,0.257338,0.262103,0.184703,0.235088,0.224405,0.142306,1,1
3272,82,0.123573,0.194469,0.106276,0.142500,0.207171,0.232008,0.122267,1,1
3269,82,0.131506,0.217169,0.199755,0.159653,0.187359,0.271542,0.195905,1,1
3314,83,0.224748,0.209900,0.163233,0.160970,0.133791,0.214712,0.139437,1,1
3293,83,0.231164,0.222038,0.179203,0.206426,0.218722,0.232680,0.090867,1,1
3318,83,0.221036,0.135703,0.178624,0.213570,0.237925,0.226290,0.247286,1,1
3308,83,0.140005,0.130762,0.193557,0.179425,0.249135,0.252442,0.228909,1,1
3301,83,0.213737,0.292315,0.151055,0.190554,0.180744,0.233078,0.204010,1,1
3287,83,0.223584,0.259516,0.239683,0.204187,0.238196,0.162446,0.173612,1,1
3311,83,0.099670,0.187917,0.141703,0.209448,0.182848,0.195695,0.130354,1,1
3296,83,0.068802,0.188229,0.193904,0.212569,0.177817,0.192571,0.072409,1,1
3291,83,0.217400,0.272357,0.127417,0.284365,0.235162,0.192774,0.165656,1,1
3285,83,0.115355,0.220343,0.107485,0.317856,0.199371,0.241705,0.211553,1,1
3299,83,0.144493,0.210527,0.187130,0.170192,0.188016,0.146469,0.077521,1,1
3297,83,0.154843,0.144925,0.097042,0.194698,0.240081,0.267928,0.132686,1,1
3290,83,0.209810,0.170288,0.202260,0.235502,0.138420,0.250036,0.248748,1,1
3286,83,0.124128,0.263622,0.236852,0.150214,0.185675,0.224726,0.176116,1,1
3289,83,0.129054,0.260271,0.218005,0.195311,0.204762,0.160879,0.101003,1,1
3312,83,0.205167,0.235313,0.173993,0.216109,0.214343,0.184941,0.118902,1,1
3319,83,0.161796,0.128520,0.162219,0.196706,0.112032,0.174898,0.086103,1,1
3307,83,0.179920,0.245840,0.147302,0.138173,0.283302,0.207859,0.251471,1,1
3303,83,0.208370,0.131805,0.175911,0.087694,0.197638,0.162805,0.145457,1,1
3280,83,0.141060,0.146479,0.247592,0.275469,0.307017,0.091031,0.131457,1,1
3306,83,0.197684,0.158260,0.189405,0.180910,0.202413,0.107749,0.128305,1,1
3313,83,0.135137,0.166880,0.227119,0.229577,0.307325,0.205976,0.170343,1,1
3281,83,0.092220,0.163040,0.148068,0.240682,0.204028,0.166623,0.223797,1,1
3283,83,0.185796,0.172413,0.218890,0.226540,0.176029,0.320847,0.276415,1,1
3309,83,0.147538,0.119977,0.241448,0.149290,0.273829,0.196893,0.153902,1,1
3317,83,0.077290,0.154555,0.244519,0.121262,0.233659,0.221390,0.169285,1,1
3295,83,0.268528,0.200633,0.187378,0.187122,0.234017,0.276298,0.135064,1,1
3288,83,0.185440,0.219181,0.178207,0.232112,0.236566,0.223399,0.252482,1,1
3305,83,0.137091,0.269662,0.176422,0.105373,0.138636,0.218004,0.193309,1,1
3300,83,0.142185,0.120891,0.278360,0.166184,0.185798,0.214835,0.116846,1,1
3294,83,0.098993,0.176371,0.191473,0.119556,0.153426,0.211644,0.122895,1,1
3316,83,0.201001,0.221098,0.173964,0.183053,0.283133,0.217641,0.126231,1,1
3315,83,0.143054,0.142339,0.240837,0.267507,0.256669,0.314561,0.121908,1,1
3310,83,0.171620,0.149333,0.175075,0.260794,0.222609,0.145416,0.204252,1,1
3298,83,0.173573,0.165849,0.140019,0.207122,0.276803,0.202791,0.187480,1,1
3284,83,0.205914,0.081672,0.186784,0.100303,0.189841,0.155347,0.145974,1,1
3304,83,0.159224,0.160631,0.324479,0.211436,0.205852,0.163888,0.140160,1,1
3302,83,0.176578,0.201157,0.144033,0.168236,0.282202,0.044648,0.126146,1,1
3282,83,0.085348,0.163331,0.163268,0.203040,0.204833,0.214825,0.100125,1,1
3292,83,0.210996,0.146840,0.139404,0.224714,0.246666,0.145482,0.220039,1,1
3323,84,0.148713,0.225564,0.120991,0.164581,0.267184,0.206517,0.208344,1,1
3329,84,0.089212,0.272830,0.209444,0.189154,0.231329,0.239524,0.203624,1,1
3333,84,0.116429,0.128690,0.247696,0.187452,0.269411,0.241617,0.226627,1,1
3340,84,0.219009,0.103413,0.062839,0.120193,0.249025,0.083324,0.235594,1,1
3342,84,0.065569,0.171566,0.110868,0.225938,0.337251,0.153060,0.141667,1,1
3330,84,0.335937,0.218181,0.179472,0.280773,0.151993,0.280885,0.287842,1,0
3346,84,0.058038,0.144689,0.096249,0.120999,0.190226,0.182607,0.049951,1,1
3337,84,0.089153,0.269687,0.198943,0.193658,0.289305,0.227669,0.192888,1,1
3341,84,0.191167,0.158403,0.231818,0.214595,0.263900,0.258855,0.127479,1,1
3324,84,0.215460,0.201903,0.259370,0.261646,0.219892,0.314883,0.173826,1,1
3343,84,0.266285,0.197136,0.104101,0.228265,0.221215,0.184487,0.194824,1,1
3349,84,0.219867,0.182055,0.157670,0.241401,0.147582,0.274726,0.156335,1,1
3355,84,0.249822,0.143482,0.165615,0.238405,0.160186,0.175206,0.203301,1,1
3322,84,0.108156,0.236718,0.182229,0.205642,0.156812,0.169858,0.186214,1,1
3358,84,0.073655,0.172648,0.189832,0.240281,0.237010,0.269282,0.179716,1,1
3352,84,0.204957,0.249214,0.132060,0.218339,0.148233,0.229500,0.184686,1,1
3325,84,0.201762,0.201440,0.191191,0.200927,0.260586,0.214539,0.171992,1,1
3338,84,0.126029,0.176678,0.201330,0.224903,0.205766,0.285265,0.222858,1,1
3348,84,0.129918,0.186184,0.184034,0.173548,0.162128,0.263126,0.021704,1,1
3320,84,0.159788,0.216248,0.068028,0.202769,0.279860,0.258899,0.200546,1,1
3356,84,0.209429,0.193045,0.043252,0.224261,0.244895,0.195710,0.147675,1,1
3345,84,0.219970,0.107873,0.142960,0.151187,0.190829,0.283660,0.158514,1,1
3331,84,0.172613,0.191991,0.195365,0.173978,0.219758,0.204355,0.134950,1,1
3321,84,0.184417,0.222833,0.211695,0.162579,0.221239,0.205822,0.145466,1,1
3357,84,0.149728,0.157167,0.226305,0.134440,0.238792,0.222594,0.181197,1,1
3351,84,0.118311,0.199474,0.163810,0.097589,0.170192,0.181308,0.109708,1,1
3326,84,0.141366,0.188490,0.226511,0.158657,0.212058,0.192159,0.243613,1,1
3347,84,0.115039,0.077380,0.108935,0.149124,0.122640,0.218242,0.196593,1,1
3350,84,0.188295,0.139509,0.201113,0.213085,0.286422,0.193878,0.142453,1,1
3327,84,0.091997,0.060820,0.216092,0.175428,0.131564,0.228710,0.185891,1,1
3339,84,0.211630,0.114908,0.086416,0.143319,0.164999,0.258651,0.166567,1,1
3344,84,0.201078,0.123404,0.207744,0.045081,0.219082,0.202008,0.172782,1,1
3332,84,0.120387,0.187488,0.149128,0.146523,0.249879,0.308018,0.145657,1,1
3335,84,0.223824,0.130465,0.156970,0.226134,0.236212,0.189258,0.160861,1,1
3334,84,0.213319,0.155858,0.164993,0.123951,0.235170,0.127718,0.180549,1,1
3354,84,0.149547,0.116460,0.187411,0.231270,0.166604,0.231499,0.133090,1,1
3359,84,0.116338,0.193226,0.053871,0.111994,0.173237,0.252373,0.138066,1,1
3328,84,0.179543,0.231209,0.200557,0.251640,0.289480,0.207915,0.187996,1,1
3353,84,0.249101,0.127089,0.116163,0.183026,0.228122,0.226951,0.066117,1,1
3336,84,0.095390,0.241807,0.212280,0.182227,0.240086,0.235834,0.195175,1,1
3363,85,0.201204,0.237996,0.240022,0.098283,0.182153,0.222644,0.265631,1,1
3390,85,0.271414,0.251163,0.101303,0.248674,0.113992,0.273357,0.164735,1,1
3372,85,0.188078,0.226937,0.129336,0.203969,0.138460,0.158139,0.278550,1,1
3362,85,0.197400,0.230093,0.154218,0.084229,0.182721,0.304466,0.188725,1,1
3391,85,0.078365,0.121849,0.143607,0.262879,0.217651,0.256660,0.092234,1,1
3382,85,0.122527,0.170254,0.278419,0.169311,0.207918,0.128368,0.179855,1,1
3398,85,0.138807,0.074753,0.169159,0.180361,0.287488,0.158741,0.132274,1,1
3383,85,0.195307,0.184614,0.188521,0.246440,0.291231,0.235037,0.122990,1,1
3368,85,0.172213,0.288609,0.106101,0.246922,0.223095,0.141974,0.150038,1,1
3367,85,0.105114,0.178143,0.226498,0.251043,0.173169,0.215177,0.161424,1,1
3371,85,0.230703,0.150728,0.211230,0.152600,0.113510,0.204762,0.175765,1,1
3375,85,0.199342,0.232725,0.183642,0.292936,0.222519,0.152038,0.217560,1,1
3396,85,0.216441,0.215934,0.170979,0.263136,0.173051,0.217993,0.137390,1,1
3399,85,0.221937,0.167663,0.183657,0.197511,0.223482,0.209688,0.125316,1,1
3366,85,0.142146,0.194457,0.120043,0.222129,0.262287,0.243403,0.206136,1,1
3376,85,0.149274,0.180203,0.167685,0.212265,0.150164,0.163390,0.212842,1,1
3394,85,0.221741,0.181673,0.092975,0.181722,0.241553,0.176211,0.121513,1,1
3378,85,0.182774,0.173031,0.215802,0.145141,0.284453,0.265865,0.060909,1,1
3364,85,0.142117,0.261165,0.196786,0.128909,0.229278,0.068532,0.199951,1,1
3369,85,0.231077,0.107372,0.173178,0.164850,0.213080,0.218332,0.160023,1,1
3386,85,0.164935,0.182909,0.134878,0.193739,0.216005,0.222743,0.222282,1,1
3380,85,0.154581,0.103889,0.160140,0.250716,0.229755,0.257353,0.209737,1,1
3388,85,0.192093,0.198490,0.261507,0.230183,0.215597,0.182425,0.175014,1,1
3373,85,0.184920,0.221565,0.230881,0.283761,0.225626,0.266046,0.154929,1,1
3384,85,0.259097,0.263010,0.238903,0.195728,0.184152,0.157807,0.225099,1,1
3361,85,0.268641,0.203422,0.125781,0.198522,0.356773,0.119623,0.229894,1,1
3381,85,0.222147,0.132616,0.146173,0.179961,0.181909,0.187998,0.188758,1,1
3397,85,0.175927,0.178586,0.157713,0.238482,0.219449,0.193731,0.128362,1,1
3392,85,0.195077,0.248714,0.194901,0.208034,0.170067,0.294908,0.136409,1,1
3385,85,0.168159,0.128486,0.233101,0.193919,0.170087,0.208338,0.209403,1,1
3360,85,0.127731,0.189042,0.256618,0.190626,0.320086,0.216032,0.206365,1,1
3393,85,0.173045,0.163592,0.155189,0.120664,0.136248,0.249945,0.268825,1,1
3377,85,0.181393,0.076573,0.168756,0.109538,0.243766,0.195326,0.124933,1,1
3379,85,0.094977,0.103791,0.203368,0.129854,0.285320,0.161713,0.177007,1,1
3365,85,0.139657,0.213689,0.173888,0.269521,0.274403,0.180687,0.166993,1,1
3395,85,0.172699,0.115577,0.294627,0.238058,0.258230,0.282485,0.199150,1,1
3370,85,0.093750,0.226864,0.113700,0.200650,0.228973,0.254365,0.043806,1,1
3389,85,0.160396,0.032197,0.175072,0.158501,0.215488,0.214123,0.199024,0,1
3374,85,0.233932,0.147940,0.165271,0.178458,0.297300,0.223053,0.258397,1,1
3387,85,0.249627,0.189951,0.098981,0.212259,0.206030,0.187872,0.236520,1,1
3422,86,0.201589,0.140017,0.248776,0.232762,0.185093,0.113213,0.139536,1,1
3423,86,0.285966,0.147197,0.157764,0.187587,0.234747,0.190667,0.224045,1,1
3419,86,0.133474,0.208002,0.115743,0.220363,0.272396,0.131972,0.190365,1,1
3417,86,0.204617,0.294999,0.196403,0.245148,0.213887,0.169258,0.104977,1,1
3438,86,0.140647,0.255680,0.157616,0.167012,0.190117,0.156620,0.178211,1,1
3427,86,0.121816,0.123065,0.193518,0.249190,0.225995,0.179256,0.120827,1,1
3426,86,0.133384,0.249765,0.191912,0.276303,0.187045,0.201652,-0.016953,1,1
3414,86,0.104356,0.204341,0.168829,0.281435,0.197412,0.267123,0.131768,1,1
3434,86,0.216591,0.151868,0.145106,0.201229,0.244409,0.175568,0.160191,1,1
3433,86,0.180894,0.214533,0.143906,0.273102,0.261644,0.242682,0.100141,1,1
3425,86,0.181393,0.128652,0.183972,0.135456,0.238627,0.196327,0.119677,1,1
3418,86,0.151805,0.262338,0.183741,0.146222,0.173243,0.112307,0.165993,1,1
3436,86,0.150289,0.158338,0.227977,0.276313,0.270325,0.328881,0.167299,1,1
3421,86,0.194986,0.188482,0.163286,0.165678,0.173647,0.255134,0.165479,1,1
3403,86,0.209247,0.246175,0.181469,0.278057,0.218804,0.202354,0.174975,1,1
3411,86,0.206078,0.087143,0.107945,0.143568,0.218302,0.203811,0.170328,1,1
3415,86,0.123782,0.159525,0.210929,0.164217,0.253967,0.159943,0.185203,1,1
3416,86,0.235374,0.250072,0.147007,0.235109,0.287404,0.189001,0.125366,1,1
3406,86,0.170216,0.215160,0.207484,0.243357,0.208452,0.189952,0.128326,1,1
3405,86,0.110987,0.198809,0.177837,0.234548,0.217543,0.195582,0.237370,1,1
3407,86,0.098247,0.180656,0.193975,0.212713,0.223260,0.140691,0.265306,1,1
3435,86,0.137680,0.133880,0.153105,0.175465,0.232185,0.239237,0.059205,1,1
3404,86,0.117471,0.190515,0.161536,0.141266,0.213659,0.169168,0.101711,1,1
3430,86,0.158601,0.149557,0.155645,0.138815,0.229610,0.273311,0.063908,1,1
3409,86,0.167941,0.234991,0.148890,0.186718,0.179225,0.176186,0.159221,1,1
3400,86,0.140648,0.254791,0.243656,0.213028,0.209616,0.162136,0.089599,1,1
3424,86,0.099881,0.146432,0.209209,0.194807,0.159135,0.176813,0.239161,1,1
3431,86,0.163735,0.097791,0.149773,0.160014,0.205792,0.178710,0.175785,1,1
3402,86,0.161282,0.237609,0.276326,0.238644,0.299951,0.213243,0.224796,1,1
3410,86,0.175206,0.287883,0.171339,0.252042,0.203293,0.182412,0.160810,1,1
3408,86,0.105464,0.214590,0.170330,0.171187,0.263270,0.146381,0.257369,1,1
3428,86,0.190993,0.132429,0.093974,0.229731,0.227563,0.248918,0.229934,1,1
3401,86,0.142574,0.199875,0.162357,0.087903,0.313366,0.207744,0.114179,1,1
3439,86,0.204458,0.157646,0.195970,0.083169,0.252707,0.130555,0.174308,1,1
3437,86,0.125466,0.221448,0.121895,0.152413,0.165560,0.153293,0.215746,1,1
3429,86,0.244397,0.259492,0.139502,0.095706,0.206253,0.203182,0.146820,1,1
3412,86,0.193913,0.201717,0.166559,0.219828,0.316869,0.189164,0.180749,1,1
3413,86,0.142876,0.170410,0.133296,0.277143,0.132928,0.196507,0.210175,1,1
3432,86,0.189901,0.193333,0.237694,0.182624,0.188817,0.152817,0.168845,1,1
3420,86,0.232503,0.138185,0.156872,0.211255,0.211420,0.210329,0.217648,1,1
3477,87,0.159961,0.106609,0.171445,0.212533,0.250700,0.132942,0.176277,1,1
3451,87,0.137541,0.130752,0.162147,0.165006,0.180848,0.224518,0.198997,1,1
3452,87,0.169598,0.183935,0.165474,0.139504,0.269618,0.209344,0.240793,1,1
3450,87,0.193796,0.176469,0.148259,0.167871,0.231050,0.217857,0.241880,1,1
3447,87,0.262525,0.232532,0.185881,0.186736,0.177093,0.240195,0.209283,1,1
3449,87,0.115888,0.174705,0.166123,0.239386,0.152808,0.155185,0.258981,1,1
3469,87,0.138261,0.177045,0.194761,0.066071,0.200131,0.178705,0.102629,1,1
3462,87,0.153342,0.187696,0.164930,0.233142,0.245309,0.162323,0.147027,1,1
3473,87,0.271687,0.126272,0.171732,0.106386,0.178142,0.224400,0.202338,1,1
3471,87,0.045903,0.231184,0.127957,0.153381,0.140936,0.239166,0.131678,1,1
3460,87,0.116012,0.185800,0.165063,0.270336,0.271494,0.193751,0.225828,1,1
3466,87,0.231192,0.187890,0.230040,0.315520,0.191471,0.219172,0.217503,1,1
3455,87,0.229289,0.124831,0.184218,0.216022,0.255191,0.293922,0.209955,1,1
3454,87,0.161693,0.142002,0.191043,0.145774,0.288368,0.183430,0.192712,1,1
3444,87,0.188271,0.211709,0.198013,0.155513,0.273895,0.258238,0.168446,1,1
3465,87,0.191239,0.193618,0.185738,0.131771,0.248736,0.250748,0.142272,1,1
3459,87,0.228885,0.137495,0.099416,0.211072,0.254522,0.194043,0.117808,1,1
3445,87,0.172494,0.186079,0.195743,0.183385,0.205171,0.268613,0.197375,1,1
3475,87,0.200550,0.237800,0.209617,0.204354,0.277261,0.125000,0.141249,1,1
3453,87,0.145249,0.233748,0.235145,0.170243,0.189718,0.241172,0.110699,1,1
3442,87,0.166421,0.184968,0.123105,0.283834,0.180914,0.203145,0.135321,1,1
3461,87,0.098024,0.194391,0.182330,0.194340,0.240006,0.247889,0.088386,1,1
3478,87,0.265777,0.126360,0.172412,0.161585,0.229182,0.219044,0.242194,1,1
3467,87,0.191488,0.242147,0.164134,0.202162,0.188485,0.290767,0.172588,1,1
3457,87,0.189878,0.129955,0.137209,0.099886,0.276529,0.331312,0.173400,1,1
3458,87,0.162929,0.172856,0.207140,0.177154,0.183381,0.329524,0.142916,1,1
3463,87,0.155790,0.221643,0.150269,0.196668,0.155465,0.228490,0.203913,1,1
3472,87,0.139217,0.124698,0.207560,0.215498,0.142588,0.182057,0.090212,1,1
3440,87,0.173448,0.246887,0.131585,0.188723,0.248195,0.202513,0.145746,1,1
3441,87,0.274004,0.239688,0.206487,0.162917,0.209995,0.191489,0.170004,1,1
3443,87,0.156229,0.189515,0.196120,0.231436,0.151664,0.146649,0.206454,1,1
3448,87,0.168933,0.130493,0.232006,0.154024,0.242830,0.232707,0.146275,1,1
3470,87,0.081353,0.117185,0.105879,0.225611,0.213935,0.174838,0.222668,1,1
3446,87,0.111453,0.235889,0.055984,0.190109,0.337971,0.154971,0.129236,1,1
3468,87,0.141023,0.104527,0.217945,0.153922,0.253082,0.139438,0.096386,1,1
3479,87,0.252089,0.161802,0.146612,0.151511,0.279511,0.165530,0.200486,1,1
3456,87,0.164350,0.190752,0.189984,0.209423,0.218981,0.183686,0.216010,1,1
3474,87,0.148328,0.196458,0.121320,0.266617,0.231100,0.181134,0.153268,1,1
3464,87,0.153713,0.160731,0.175846,0.309501,0.272260,0.160585,0.215260,1,1
3476,87,0.113589,0.121096,0.161728,0.287565,0.225181,0.172839,0.228408,1,1
3489,88,0.058494,0.135988,0.133729,0.243823,0.291978,0.324110,0.226580,1,1
3504,88,0.187870,0.137129,0.204751,0.201455,0.187220,0.316372,0.181476,1,1
3513,88,0.100421,0.213771,0.235053,0.274460,0.149577,0.203069,0.181290,1,1
3491,88,0.132288,0.201824,0.130645,0.277564,0.164382,0.234801,0.212868,1,1
3506,88,0.178713,0.203501,0.172637,0.215037,0.361746,0.173917,0.107095,1,1
3494,88,0.207530,0.099174,0.105992,0.235197,0.274327,0.240202,0.170472,1,1
3488,88,0.152675,0.143565,0.150830,0.274507,0.182279,0.267188,0.190583,1,1
3518,88,0.256771,0.168076,0.195424,0.174805,0.206892,0.153453,0.285321,1,1
3496,88,0.183947,0.210192,0.213337,0.188943,0.285119,0.197947,0.199909,1,1
3511,88,0.156430,0.199897,0.243312,0.122454,0.270138,0.148061,0.200205,1,1
3483,88,0.209809,0.171538,0.227640,0.200111,0.341303,0.185176,0.223311,1,1
3493,88,0.165567,0.272577,0.185631,0.308115,0.153699,0.371588,0.251326,1,1
3510,88,0.203490,0.072841,0.151832,0.133923,0.306442,0.108346,0.224585,1,1
3490,88,0.173239,0.165757,0.165003,0.254314,0.212539,0.238803,0.143347,1,1
3495,88,0.132698,0.228810,0.177984,0.243387,0.324274,0.239691,0.115968,1,1
3505,88,0.102875,0.164030,0.198106,0.182115,0.269083,0.264474,0.196736,1,1
3482,88,0.142293,0.148201,0.225515,0.228838,0.212277,0.199710,0.241237,1,1
3503,88,0.096649,0.299330,0.206926,0.127006,0.211021,0.184415,0.131283,1,1
3484,88,0.173473,0.242580,0.159900,0.219875,0.243541,0.249942,0.216415,1,1
3501,88,0.130898,0.222526,0.163583,0.171201,0.214969,0.104677,0.133082,1,1
3486,88,0.236617,0.256903,0.233873,0.156227,0.199871,0.189363,0.185851,1,1
3514,88,0.176111,0.131188,0.160516,0.140968,0.314988,0.223329,0.219247,1,1
3509,88,0.061392,0.194526,0.222348,0.204987,0.260286,0.224666,0.216235,1,1
3512,88,0.131930,0.263647,0.116397,0.232300,0.241883,0.177725,0.231178,1,1
3487,88,0.235447,0.183190,0.298047,0.196276,0.274022,0.195062,0.254049,1,1
3517,88,0.147740,0.214685,0.184033,0.276804,0.214915,0.194495,0.168036,1,1
3480,88,0.183960,0.221805,0.164112,0.173665,0.209802,0.171920,0.258755,1,1
3516,88,0.231673,0.132726,0.146704,0.160203,0.215152,0.198996,0.274597,1,1
3515,88,0.199622,0.162591,0.293040,0.214747,0.230958,0.187749,0.238493,1,1
3500,88,0.129387,0.189962,0.217385,0.257049,0.169359,0.253774,0.259067,1,1
3497,88,0.159925,0.199975,0.151641,0.177148,0.198872,0.199427,0.217146,1,1
3498,88,0.182801,0.146109,0.173581,0.254161,0.148570,0.241755,0.212678,1,1
3502,88,0.209306,0.176447,0.104171,0.195694,0.209719,0.142101,0.076478,1,1
3507,88,0.175615,0.189603,0.258602,0.243351,0.243247,0.210086,0.106294,1,1
3485,88,0.086325,0.365502,0.103073,0.223885,0.211032,0.254295,0.170450,1,0
3519,88,0.228706,0.183501,0.190237,0.163599,0.300640,0.200496,0.224971,1,1
3508,88,0.173250,0.136972,0.158481,0.116978,0.267250,0.190898,0.170526,1,1
3499,88,0.207504,0.116724,0.113980,0.226465,0.315581,0.229532,0.203793,1,1
3492,88,0.207821,0.242244,0.156133,0.140269,0.092992,0.317549,0.053682,1,1
3481,88,0.194264,0.181053,0.224468,0.283175,0.249812,0.159128,0.207396,1,1
3558,89,0.261482,0.162323,0.092829,0.134909,0.221269,0.194715,0.150460,1,1
3539,89,0.121499,0.241680,0.161861,0.136426,0.288357,0.113690,0.141935,1,1
3559,89,0.234121,0.155900,0.217259,0.168222,0.213024,0.238312,0.247935,1,1
3552,89,0.177963,0.256843,0.237952,0.209968,0.217439,0.171005,0.128170,1,1
3554,89,0.163051,0.150266,0.267875,0.320637,0.176338,0.239941,0.243526,1,1
3543,89,0.237373,0.145032,0.182982,0.132890,0.246696,0.153751,0.171020,1,1
3542,89,0.192515,0.099509,0.162659,0.270324,0.194378,0.215723,0.262341,1,1
3527,89,0.209334,0.182100,0.121892,0.176100,0.179298,0.228055,0.134580,1,1
3528,89,0.244174,0.204284,0.151041,0.245799,0.137561,0.164130,0.164446,1,1
3548,89,0.214472,0.216206,0.094451,0.241489,0.275649,0.221897,0.228024,1,1
3538,89,0.115495,0.156789,0.244121,0.143439,0.242912,0.167994,0.202663,1,1
3557,89,0.237689,0.143385,0.173968,0.197797,0.199187,0.207703,0.302194,1,1
3532,89,0.155869,0.220088,0.248738,0.135491,0.159433,0.221768,0.142691,1,1
3555,89,0.170639,0.127206,0.249300,0.248937,0.280761,0.237346,0.168752,1,1
3533,89,0.269507,0.179985,0.146266,0.237112,0.268097,0.187022,0.137499,1,1
3523,89,0.121512,0.135149,0.228002,0.296139,0.227493,0.279953,0.223645,1,1
3534,89,0.153404,0.166426,0.238630,0.230008,0.084178,0.118146,0.201955,1,1
3521,89,0.126314,0.254654,0.232077,0.152585,0.121033,0.273610,0.210366,1,1
3531,89,0.162501,0.163256,0.236069,0.224885,0.111806,0.164082,0.171531,1,1
3549,89,0.211581,0.132559,0.154689,0.176632,0.288251,0.154197,0.157119,1,1
3536,89,0.155028,0.243926,0.186261,0.119453,0.220052,0.242416,0.157471,1,1
3526,89,0.211486,0.165638,0.206717,0.254780,0.221972,0.297644,0.167670,1,1
3525,89,0.096505,0.203139,0.185436,0.146752,0.214549,0.245628,0.251900,1,1
3553,89,0.144367,0.142719,0.238145,0.163682,0.255472,0.146559,0.184205,1,1
3537,89,0.179708,0.227014,0.204215,0.286975,0.080742,0.261655,0.166104,1,1
3546,89,0.092733,0.141202,0.218950,0.128478,0.271412,0.215507,0.067393,1,1
3547,89,0.165598,0.162111,0.167626,0.208929,0.225736,0.176016,0.286242,1,1
3520,89,0.174303,0.286171,0.247780,0.176646,0.227455,0.218763,0.165965,1,1
3540,89,0.085001,0.193359,0.170660,0.206083,0.263458,0.290533,0.249551,1,1
3556,89,0.154272,0.083479,0.164842,0.207813,0.230086,0.227164,0.136946,1,1
3541,89,0.177509,0.138292,0.184175,0.205696,0.248414,0.044083,0.218124,1,1
3545,89,0.169552,0.275760,0.197760,0.096405,0.201271,0.165185,0.138268,1,1
3524,89,0.150807,0.165982,0.208190,0.282814,0.277203,0.116537,0.133761,1,1
3535,89,0.175465,0.220201,0.115541,0.277051,0.349513,0.234241,0.223674,1,1
3550,89,0.216775,0.169768,0.155999,0.181984,0.225366,0.133289,0.214470,1,1
3529,89,0.096056,0.227543,0.162636,0.231299,0.246277,0.282784,0.110078,1,1
3544,89,0.236736,0.061147,0.263218,0.272433,0.185350,0.183835,0.170512,1,1
3522,89,0.055370,0.183068,0.251004,0.139747,0.078369,0.134113,0.146416,1,1
3551,89,0.205322,0.163854,0.154185,0.131403,0.205966,0.162804,0.232340,1,1
3530,89,0.070999,0.178590,0.183037,0.138428,0.203748,0.269125,0.215630,1,1
3563,90,0.222422,0.198552,0.155533,0.224646,0.276210,0.164492,0.202291,1,1
3576,90,0.153223,0.193906,0.181494,0.193115,0.244246,0.137389,0.213454,1,1
3561,90,0.081841,0.175064,0.226614,0.202907,0.285811,0.200081,0.256919,1,1
3578,90,0.160073,0.225094,0.174636,0.246196,0.207257,0.152033,0.211790,1,1
3570,90,0.153551,0.289538,0.187146,0.195653,0.307676,0.120251,0.147240,1,1
3581,90,0.149152,0.116392,0.125725,0.285959,0.170918,0.110190,0.170339,1,1
3565,90,0.163218,0.131922,0.152200,0.364468,0.311542,0.180043,0.142374,1,1
3596,90,0.234417,0.133303,0.125438,0.190040,0.235063,0.169809,0.186225,1,1
3589,90,0.199421,0.111841,0.198529,0.221852,0.259702,0.257187,0.329078,1,1
3574,90,0.171987,0.230273,0.156160,0.290470,0.227335,0.197279,0.247556,1,1
3571,90,0.181473,0.238362,0.209139,0.125588,0.231846,0.201162,0.248524,1,1
3592,90,0.167037,0.181455,0.157230,0.211106,0.178970,0.258139,0.117035,1,1
3586,90,0.193040,0.119899,0.230470,0.227248,0.216165,0.270028,0.218401,1,1
3572,90,0.161819,0.147029,0.162235,0.216834,0.276293,0.104909,0.248831,1,1
3593,90,0.186466,0.112237,0.224229,0.219236,0.340079,0.185207,0.154582,1,1
3567,90,0.143533,0.208649,0.150835,0.139404,0.177428,0.168804,0.141266,1,1
3588,90,0.183888,0.211812,0.120697,0.237643,0.208761,0.282604,0.195369,1,1
3583,90,0.140391,0.191376,0.185093,0.226812,0.155053,0.269703,0.112264,1,1
3568,90,0.189565,0.185089,0.122344,0.148708,0.248136,0.262648,0.129694,1,1
3573,90,0.167520,0.234533,0.189375,0.110822,0.348456,0.182679,0.177203,1,1
3599,90,0.263025,0.175370,0.028348,0.241394,0.241732,0.181357,0.083981,1,1
3591,90,0.109171,0.153640,0.177018,0.171259,0.155685,0.168715,0.131175,1,1
3598,90,0.205628,0.127915,0.204805,0.110198,0.223265,0.167943,0.248294,1,1
3580,90,0.103491,0.140500,0.221677,0.275205,0.096508,0.269105,0.094830,1,1
3562,90,0.180074,0.143785,0.246404,0.233681,0.207410,0.253924,0.167077,1,1
3577,90,0.148743,0.210819,0.203331,0.247457,0.232073,0.123963,0.184611,1,1
3590,90,0.119595,0.163771,0.195764,0.171888,0.208682,0.176954,0.226854,1,1
3595,90,0.246391,0.272239,0.208138,0.187871,0.289570,0.228600,0.165042,1,1
3582,90,0.128093,0.156075,0.111105,0.157246,0.269089,0.139525,0.120030,1,1
3587,90,0.132555,0.126128,0.230135,0.261331,0.175521,0.243661,0.109262,1,1
3560,90,0.170725,0.257862,0.209655,0.262344,0.194740,0.226308,0.229582,1,1
3597,90,0.237299,0.083954,0.161670,0.264056,0.205991,0.158889,0.161073,1,1
3566,90,0.189754,0.232463,0.226188,0.223297,0.196927,0.176121,0.280324,1,1
3564,90,0.276732,0.249445,0.192942,0.185969,0.243279,0.223422,0.180764,1,1
3584,90,0.181501,0.222130,0.066178,0.291997,0.277623,0.224962,0.176761,1,1
3575,90,0.178808,0.149813,0.136648,0.209136,0.296250,0.265871,0.265775,1,1
3585,90,0.257493,0.182632,0.149406,0.121020,0.183115,0.172714,0.247134,1,1
3569,90,0.144918,0.082455,0.148320,0.205220,0.181962,0.166880,0.185841,1,1
3594,90,0.071841,0.142159,0.162115,0.235692,0.236163,0.170639,0.158634,1,1
3579,90,0.219681,0.198942,0.250131,0.248526,0.223227,0.214001,0.188760,1,1
3629,91,0.265901,0.208379,0.289407,0.246066,0.291340,0.254775,0.218299,1,1
3613,91,0.211649,0.145024,0.141882,0.211946,0.223093,0.264797,0.176366,1,1
3625,91,0.169978,0.097732,0.159783,0.140981,0.252681,0.264030,0.056394,1,1
3622,91,0.259267,0.223029,0.130110,0.150149,0.154073,0.170026,0.184558,1,1
3638,91,0.171682,0.184230,0.171207,0.250514,0.319884,0.147640,0.197776,1,1
3631,91,0.219848,0.145293,0.162082,0.067894,0.253179,0.230596,0.204364,1,1
3635,91,0.218678,0.169669,0.184623,0.258297,0.246299,0.144092,0.148682,1,1
3609,91,0.230884,0.230961,0.158903,0.136115,0.205792,0.188636,0.218530,1,1
3621,91,0.126671,0.234637,0.160838,0.234626,0.253236,0.207946,0.220713,1,1
3637,91,0.223840,0.212060,0.142987,0.178620,0.272103,0.254969,0.142860,1,1
3612,91,0.189009,0.184629,0.206540,0.246792,0.228178,0.156010,0.238417,1,1
3602,91,0.113492,0.148216,0.207917,0.168375,0.227230,0.262636,0.187519,1,1
3614,91,0.089401,0.179729,0.232515,0.149333,0.343052,0.160378,0.131256,1,1
3603,91,0.114332,0.147445,0.247298,0.161219,0.219696,0.198980,0.154396,1,1
3610,91,0.190498,0.189221,0.274775,0.178730,0.187102,0.305146,0.229279,1,1
3615,91,0.194585,0.193542,0.280090,0.217581,0.240333,0.224878,0.096160,1,1
3600,91,0.210211,0.140190,0.197383,0.235905,0.199423,0.232826,0.183505,1,1
3639,91,0.206210,0.183866,0.113663,0.260696,0.271480,0.226257,0.152005,1,1
3627,91,0.198267,0.212113,0.170111,0.134085,0.191569,0.198859,0.185478,1,1
3624,91,0.220314,0.164492,0.206628,0.193814,0.286135,0.260668,0.082236,1,1
3601,91,0.127352,0.179761,0.109421,0.213328,0.184965,0.179038,0.175902,1,1
3619,91,0.171135,0.197473,0.257847,0.134698,0.290766,0.219531,0.127448,1,1
3636,91,0.170459,0.144039,0.209261,0.101269,0.199871,0.169928,0.306607,1,1
3628,91,0.137116,0.182943,0.160845,0.199308,0.180715,0.152568,0.202401,1,1
3632,91,0.179746,0.138573,0.141671,0.235807,0.276794,0.191113,0.220536,1,1
3608,91,0.186381,0.208140,0.177603,0.231523,0.239238,0.149468,0.246698,1,1
3606,91,0.166054,0.205770,0.123765,0.290817,0.197950,0.180412,0.215238,1,1
3607,91,0.162711,0.265756,0.192347,0.213877,0.183228,0.169049,0.112997,1,1
3616,91,0.137265,0.154402,0.149593,0.155096,0.280721,0.197465,0.235032,1,1
3633,91,0.277510,0.058577,0.154919,0.232376,0.237241,0.203769,0.196036,0,1
3623,91,0.252726,0.190158,0.158146,0.187522,0.208747,0.155490,0.144815,1,1
3618,91,0.212117,0.130280,0.166907,0.141523,0.273345,0.250666,0.313205,1,1
3617,91,0.156876,0.119830,0.165287,0.236089,0.223610,0.207968,0.151241,1,1
3604,91,0.336954,0.168438,0.236856,0.214115,0.248233,0.266340,0.215803,1,0
3634,91,0.304661,0.196411,0.097111,0.147346,0.304572,0.169473,0.145308,1,1
3611,91,0.131420,0.190516,0.138455,0.203404,0.287930,0.246819,0.196635,1,1
3626,91,0.248051,0.118906,0.233156,0.195595,0.263910,0.261036,0.184526,1,1
3620,91,0.191680,0.235071,0.177420,0.256367,0.207598,0.239810,0.174601,1,1
3605,91,0.173564,0.252475,0.208814,0.221206,0.192419,0.190131,0.253733,1,1
3630,91,0.229215,0.114147,0.273872,0.177781,0.143645,0.176688,0.133516,1,1
3658,92,0.263225,0.197684,0.179169,0.160731,0.303304,0.212544,0.217065,1,1
3674,92,0.174076,0.205271,0.130544,0.205906,0.202111,0.154173,0.147869,1,1
3677,92,0.075279,0.229518,0.159408,0.260369,0.258491,0.354205,0.144347,1,1
3641,92,0.105752,0.149679,0.253519,0.232209,0.243545,0.149400,0.132055,1,1
3666,92,0.146229,0.188429,0.143364,0.291436,0.189470,0.217161,0.213116,1,1
3669,92,0.214865,0.201585,0.245793,0.170117,0.190775,0.218552,0.196708,1,1
3654,92,0.137868,0.082391,0.183088,0.249197,0.284687,0.172638,0.252544,1,1
3645,92,0.208364,0.180394,0.162632,0.254440,0.216126,0.220369,0.246803,1,1
3643,92,0.155260,0.216752,0.236017,0.131660,0.263245,0.233827,0.156100,1,1
3650,92,0.289953,0.129437,0.160239,0.178745,0.249553,0.171090,0.178335,1,1
3655,92,0.175985,0.298028,0.094627,0.176444,0.246148,0.185733,0.235770,1,1
3646,92,0.192459,0.266688,0.154084,0.146195,0.218122,0.216718,0.250411,1,1
3672,92,0.161222,0.186655,0.222695,0.206302,0.233643,0.249853,0.133359,1,1
3649,92,0.106717,0.311686,0.280205,0.197264,0.285174,0.190505,0.262860,1,0
3640,92,0.186231,0.168603,0.133665,0.262409,0.188712,0.204496,0.195592,1,1
3665,92,0.260852,0.108571,0.154847,0.286431,0.180220,0.216366,0.160776,1,1
3648,92,0.189899,0.196370,0.187099,0.164505,0.231657,0.236652,0.254421,1,1
3653,92,0.218571,0.175145,0.257343,0.262061,0.322903,0.232449,0.088807,1,1
3679,92,0.128673,0.087923,0.274548,0.198384,0.276421,0.136017,0.149622,1,1
3651,92,0.190573,0.199119,0.164911,0.146244,0.216871,0.234032,0.212829,1,1
3647,92,0.245678,0.205096,0.140187,0.176889,0.227024,0.233685,0.181843,1,1
3661,92,0.211373,0.216648,0.170385,0.171087,0.278754,0.156158,0.187943,1,1
3660,92,0.258807,0.172234,0.149452,0.198199,0.267463,0.141024,0.078160,1,1
3673,92,0.159211,0.141915,0.125147,0.145421,0.205290,0.248194,0.141868,1,1
3642,92,0.211106,0.069882,0.182871,0.168347,0.114300,0.237261,0.185595,1,1
3668,92,0.175912,0.266481,0.098832,0.204389,0.200912,0.135996,0.112860,1,1
3662,92,0.256815,0.254810,0.183384,0.266958,0.240972,0.147326,0.298444,1,1
3671,92,0.256002,0.235073,0.190709,0.290039,0.260438,0.171897,0.253326,1,1
3652,92,0.182987,0.200508,0.152577,0.219860,0.186349,0.241657,0.106132,1,1
3664,92,0.174767,0.168009,0.274345,0.204439,0.127447,0.247787,0.178045,1,1
3644,92,0.270892,0.200686,0.137905,0.261108,0.293708,0.293845,0.138865,1,1
3678,92,0.130985,0.186081,0.162614,0.236339,0.333469,0.190382,0.194697,1,1
3659,92,0.162399,0.199965,0.139452,0.193494,0.324436,0.230536,0.268466,1,1
3670,92,0.179555,0.134884,0.197002,0.091199,0.276196,0.239565,0.206961,1,1
3663,92,0.205909,0.140798,0.309922,0.239117,0.293814,0.191292,0.169760,1,1
3656,92,0.146388,0.242818,0.220195,0.263105,0.339427,0.197803,0.221326,1,1
3676,92,0.107675,0.232538,0.203158,0.134383,0.180840,0.279664,0.265954,1,1
3675,92,0.119786,0.166741,0.195067,0.168966,0.252684,0.295401,0.205153,1,1
3667,92,0.204400,0.255769,0.144625,0.210076,0.175103,0.116034,0.118137,1,1
3657,92,0.188502,0.282318,0.237721,0.187391,0.251245,0.212243,0.143041,1,1
3699,93,0.147171,0.224557,0.151368,0.194836,0.188367,0.260736,0.177785,1,1
3704,93,0.232726,0.094358,0.214648,0.266514,0.169914,0.257350,0.174809,1,1
3701,93,0.184335,0.177241,0.094697,0.259860,0.203563,0.142400,0.166360,1,1
3684,93,0.186305,0.246681,0.230138,0.272332,0.246552,0.201820,0.156751,1,1
3692,93,0.163120,0.140958,0.147822,0.184499,0.199822,0.151464,0.141757,1,1
3694,93,0.255155,0.232207,0.249939,0.208991,0.146651,0.159428,0.165036,1,1
3711,93,0.332652,0.176844,0.184063,0.153822,0.171522,0.145782,0.165742,1,1
3681,93,0.171511,0.047072,0.217874,0.269794,0.226987,0.199471,0.176682,1,1
3687,93,0.193692,0.212709,0.148022,0.252707,0.221197,0.274990,0.203951,1,1
3686,93,0.109063,0.200024,0.201884,0.190805,0.220342,0.240768,0.129669,1,1
3706,93,0.252940,0.257979,0.163160,0.279690,0.260360,0.259169,0.144948,1,1
3717,93,0.097728,0.149487,0.147896,0.260504,0.197953,0.179279,0.220903,1,1
3705,93,0.234717,0.171323,0.094370,0.185839,0.186397,0.178903,0.180480,1,1
3715,93,0.119522,0.166127,0.135151,0.153917,0.204431,0.246816,0.111808,1,1
3710,93,0.171924,0.134387,0.098484,0.189136,0.202907,0.221886,0.148459,1,1
3700,93,0.123268,0.244834,0.087250,0.293429,0.167345,0.194065,0.103645,1,1
3683,93,0.139804,0.222469,0.220385,0.195433,0.250686,0.280754,0.161766,1,1
3696,93,0.132894,0.204746,0.114274,0.233608,0.270278,0.229812,0.151634,1,1
3680,93,0.238222,0.171027,0.147086,0.136883,0.246826,0.236862,0.226615,1,1
3691,93,0.168110,0.126902,0.169437,0.211237,0.279795,0.178800,0.181065,1,1
3707,93,0.173552,0.098614,0.165941,0.202192,0.266576,0.201823,0.238135,1,1
3714,93,0.310814,0.129406,0.219306,0.209397,0.191266,0.229353,0.204267,1,1
3689,93,0.167882,0.226093,0.202821,0.244872,0.276397,0.209077,0.252383,1,1
3688,93,0.118656,0.082677,0.208969,0.270663,0.200086,0.171192,0.202244,1,1
3697,93,0.176938,0.135155,0.313817,0.216656,0.225372,0.245579,0.277776,1,1
3698,93,0.258376,0.256117,0.253822,0.315759,0.308950,0.276370,0.232835,1,1
3682,93,0.226859,0.199789,0.180100,0.220328,0.246665,0.281833,0.218878,1,1
3703,93,0.154282,0.140063,0.133606,0.196281,0.199054,0.119652,0.186341,1,1
3719,93,0.189333,0.158539,0.219320,0.214462,0.265621,0.263496,0.152546,1,1
3690,93,0.121664,0.194060,0.236524,0.211449,0.166758,0.182952,0.135098,1,1
3713,93,0.285123,0.109549,0.175992,0.183225,0.237365,0.251116,0.225668,1,1
3708,93,0.216152,0.164798,0.179999,0.188956,0.260781,0.242288,0.202888,1,1
3685,93,0.188918,0.255819,0.158864,0.300233,0.202973,0.246914,0.123775,1,1
3712,93,0.176791,0.175393,0.135969,0.187833,0.269505,0.188755,0.206071,1,1
3716,93,0.221855,0.223554,0.184009,0.086454,0.193123,0.161907,0.222328,1,1
3709,93,0.134192,0.122711,0.132944,0.212650,0.196253,0.164985,0.154424,1,1
3702,93,0.168015,0.202855,0.098848,0.241998,0.208039,0.151129,0.086797,1,1
3718,93,0.172350,0.208632,0.175315,0.210242,0.155801,0.163727,0.214691,1,1
3693,93,0.272215,0.203614,0.251351,0.230218,0.220292,0.204134,0.221008,1,1
3695,93,0.142137,0.198809,0.149870,0.288977,0.290152,0.140573,0.149494,1,1
3741,94,0.096684,0.188954,0.216955,0.190542,0.327022,0.109918,0.113472,1,1
3747,94,0.103201,0.152964,0.200531,0.238423,0.282935,0.168559,0.213550,1,1
3737,94,0.151725,0.198606,0.175837,0.098862,0.172576,0.185174,0.121059,1,1
3756,94,0.145527,0.170101,0.252169,0.184753,0.203306,0.205199,0.188175,1,1
3753,94,0.267803,0.132443,0.114868,0.149804,0.232791,0.293627,0.085882,1,1
3749,94,0.217970,0.127104,0.169067,0.104742,0.162862,0.244584,0.223157,1,1
3736,94,0.126145,0.292637,0.192867,0.280594,0.297288,0.254349,0.115363,1,1
3720,94,0.230717,0.152933,0.185788,0.214014,0.247097,0.223979,0.255529,1,1
3733,94,0.137117,0.213523,0.199505,0.214185,0.207596,0.271495,0.166470,1,1
3759,94,0.147547,0.185927,0.065648,0.134340,0.248301,0.196088,0.196004,1,1
3738,94,0.172949,0.178607,0.222700,0.223956,0.232219,0.171734,0.186292,1,1
3745,94,0.143750,0.166244,0.151060,0.211100,0.173359,0.253254,0.179064,1,1
3746,94,0.218969,0.106496,0.203781,0.175937,0.221381,0.184087,0.160542,1,1
3727,94,0.139095,0.152035,0.198594,0.219428,0.158480,0.259097,0.161028,1,1
3722,94,0.172106,0.267159,0.129691,0.227391,0.269389,0.245510,0.218204,1,1
3734,94,0.311504,0.227426,0.182854,0.210641,0.237960,0.258440,0.263958,1,1
3730,94,0.152134,0.160412,0.231659,0.164303,0.197996,0.231451,0.179228,1,1
3754,94,0.131246,0.153830,0.094354,0.229829,0.294241,0.243637,0.221329,1,1
3751,94,0.206907,0.229969,0.136349,0.192134,0.171815,0.192171,0.201543,1,1
3739,94,0.231037,0.185226,0.216706,0.349532,0.256093,0.209910,0.120287,1,1
3731,94,0.260354,0.289699,0.228669,0.206379,0.176642,0.247009,0.210293,1,1
3726,94,0.224879,0.158426,0.203202,0.247045,0.268544,0.349327,0.216759,1,1
3742,94,0.253880,0.207207,0.147751,0.138680,0.282249,0.246239,0.258803,1,1
3721,94,0.193833,0.162328,0.169151,0.255396,0.299672,0.184373,0.190186,1,1
3743,94,0.277258,0.145342,0.040097,0.209851,0.289613,0.230105,0.191690,1,1
3758,94,0.205480,0.111989,0.231785,0.235572,0.242355,0.295698,0.252492,1,1
3732,94,0.262635,0.205153,0.135726,0.284219,0.292967,0.252792,0.181422,1,1
3728,94,0.223937,0.215438,0.213745,0.222180,0.247017,0.131273,0.179961,1,1
3724,94,0.161279,0.188905,0.181356,0.197821,0.182379,0.241515,0.139967,1,1
3752,94,0.182440,0.104625,0.179938,0.225375,0.230486,0.138463,0.219572,1,1
3729,94,0.115967,0.199358,0.244710,0.250784,0.229811,0.240699,0.212321,1,1
3744,94,0.158638,0.185834,0.160993,0.285136,0.232922,0.183418,0.151807,1,1
3740,94,0.183539,0.225066,0.234274,0.060843,0.224630,0.237959,0.232798,1,1
3725,94,0.189863,0.187274,0.131099,0.178262,0.298163,0.166528,0.091004,1,1
3757,94,0.091432,0.200652,0.152872,0.242141,0.315297,0.177932,0.181153,1,1
3750,94,0.034864,0.158149,0.243625,0.217701,0.230576,0.185831,0.134639,0,1
3735,94,0.225063,0.182203,0.206225,0.338000,0.284763,0.195923,0.191756,1,1
3748,94,0.118960,0.114112,0.204205,0.210295,0.158916,0.279583,0.140836,1,1
3723,94,0.127451,0.241499,0.155987,0.272200,0.285731,0.175460,0.179107,1,1
3755,94,0.314094,0.205121,0.187468,0.237037,0.196844,0.141281,0.151800,1,1
3798,95,0.147158,0.219348,0.154742,0.084435,0.248668,0.173521,0.111523,1,1
3776,95,0.119757,0.269840,0.217376,0.214906,0.192050,0.191529,0.203479,1,1
3766,95,0.212047,0.240782,0.178228,0.118183,0.237597,0.230248,0.149524,1,1
3763,95,0.210659,0.228616,0.246828,0.209424,0.189612,0.184470,0.155090,1,1
3772,95,0.136491,0.184774,0.241936,0.175333,0.289889,0.312785,0.157715,1,1
3796,95,0.266104,0.168555,0.221567,0.228725,0.195107,0.283343,0.169112,1,1
3782,95,0.216198,0.259344,0.191703,0.239223,0.322727,0.197968,0.158423,1,1
3761,95,0.265068,0.247911,0.147434,0.235483,0.113426,0.225000,0.143050,1,1
3767,95,0.229716,0.236827,0.179760,0.248156,0.239115,0.180553,0.134844,1,1
3788,95,0.307370,0.183703,0.071369,0.165987,0.302095,0.227243,0.233398,1,1
3778,95,0.215221,0.190889,0.189848,0.252785,0.281841,0.215298,0.181683,1,1
3777,95,0.218003,0.156362,0.158038,0.239310,0.275905,0.148766,0.238528,1,1
3789,95,0.173032,0.127031,0.268284,0.200675,0.148188,0.161367,0.066503,1,1
3794,95,0.213220,0.260675,0.223996,0.231746,0.244557,0.162415,0.114152,1,1
3790,95,0.235147,0.187099,0.214522,0.278543,0.176164,0.163204,0.171977,1,1
3760,95,0.112333,0.182585,0.147983,0.281111,0.261336,0.154320,0.147074,1,1
3786,95,0.173288,0.176603,0.287138,0.244510,0.204618,0.185672,0.040278,1,1
3791,95,0.208410,0.159801,0.264751,0.213818,0.265006,0.171944,0.168129,1,1
3769,95,0.058570,0.183453,0.243767,0.241262,0.168040,0.295046,0.139406,1,1
3780,95,0.249579,0.162522,0.142272,0.149363,0.232353,0.205252,0.257715,1,1
3787,95,0.173338,0.151032,0.183658,0.214783,0.230223,0.233833,0.170233,1,1
3784,95,0.153624,0.140142,0.164262,0.141408,0.203705,0.214162,0.201887,1,1
3795,95,0.224362,0.174848,0.071309,0.209382,0.312669,0.257163,0.158294,1,1
3781,95,0.265749,0.102345,0.221747,0.311619,0.275876,0.281229,0.172692,1,1
3773,95,0.119508,0.144540,0.165356,0.226344,0.253255,0.179780,0.201489,1,1
3797,95,0.208879,0.154457,0.205523,0.234593,0.188730,0.238324,0.218628,1,1
3771,95,0.202656,0.232476,0.127162,0.203173,0.142738,0.205306,0.174586,1,1
3770,95,0.178711,0.265641,0.107054,0.229336,0.284938,0.228164,0.321192,1,1
3793,95,0.209830,0.131239,0.227281,0.221851,0.098366,0.199596,0.201019,1,1
3792,95,0.192875,0.197186,0.173051,0.182726,0.332866,0.134836,0.258639,1,1
3765,95,0.211961,0.269565,0.319306,0.260285,0.253317,0.267150,0.157687,1,1
3779,95,0.219522,0.172013,0.186320,0.233928,0.299920,0.218009,0.229338,1,1
3762,95,0.257528,0.094100,0.204571,0.216262,0.246274,0.184424,0.233899,1,1
3774,95,0.127764,0.142154,0.221239,0.167724,0.282212,0.266175,0.213449,1,1
3764,95,0.075811,0.221286,0.194988,0.179522,0.253090,0.266478,0.193420,1,1
3775,95,0.253109,0.162460,0.235714,0.309713,0.246488,0.249344,0.172909,1,1
3768,95,0.178645,0.143219,0.180601,0.169590,0.243702,0.224121,0.180679,1,1
3785,95,0.147668,0.103802,0.260526,0.181691,0.259914,0.146600,0.142568,1,1
3799,95,0.116150,0.178892,0.200297,0.172690,0.262424,0.286267,0.207737,1,1
3783,95,0.249159,0.139621,0.192487,0.254206,0.222111,0.176258,0.223971,1,1
3803,96,0.130575,0.180885,0.115137,0.194994,0.223626,0.251461,0.211829,1,1
3824,96,0.267201,0.120498,0.134966,0.186069,0.243749,0.166662,0.178466,1,1
3827,96,0.109065,0.245205,0.226194,0.191258,0.251451,0.210225,0.115502,1,1
3806,96,0.199291,0.159811,0.217220,0.197753,0.212022,0.221970,0.217621,1,1
3835,96,0.277061,0.172787,0.210610,0.187924,0.270932,0.078678,0.256931,1,1
3809,96,0.104268,0.213912,0.166865,0.317936,0.283398,0.210922,0.236920,1,1
3804,96,0.199972,0.275886,0.121267,0.284851,0.220497,0.178461,0.153802,1,1
3823,96,0.165622,0.080538,0.106541,0.247335,0.269592,0.231397,0.193425,1,1
3800,96,0.189789,0.054219,0.272415,0.169805,0.259854,0.204604,0.123703,1,1
3832,96,0.115071,0.183319,0.109274,0.221693,0.124709,0.187542,0.170723,1,1
3805,96,0.283607,0.176144,0.221159,0.151889,0.367232,0.170457,0.174441,1,1
3829,96,0.217025,0.261157,0.195003,0.158039,0.304412,0.273426,0.209526,1,1
3812,96,0.210425,0.185636,0.135019,0.291088,0.246519,0.202157,0.179453,1,1
3822,96,0.175572,0.183086,0.095526,0.307626,0.228456,0.104423,0.142689,1,1
3802,96,0.227568,0.213832,0.216642,0.355047,0.283505,0.200591,0.137523,1,1
3801,96,0.122868,0.160760,0.190753,0.238409,0.196755,0.202080,0.177996,1,1
3833,96,0.259138,0.182527,0.263703,0.206174,0.227512,0.265782,0.193693,1,1
3813,96,0.172958,0.328548,0.219175,0.291759,0.289803,0.203020,0.184709,1,0
3825,96,0.181136,0.095690,0.177449,0.209387,0.221705,0.244378,0.288563,1,1
3837,96,0.114632,0.238517,0.129125,0.159040,0.199857,0.194366,0.253478,1,1
3811,96,0.238164,0.215358,0.181563,0.209681,0.263347,0.228324,0.160463,1,1
3816,96,0.182208,0.208826,0.211430,0.176289,0.257559,0.281295,0.237104,1,1
3821,96,0.186563,0.172240,0.185563,0.193599,0.242544,0.200489,0.219316,1,1
3826,96,0.291354,0.170232,0.147995,0.283113,0.263878,0.153411,0.163609,1,1
3834,96,0.180306,0.200729,0.186030,0.273759,0.292842,0.254867,0.071846,1,1
3830,96,0.131107,0.164190,0.114126,0.235177,0.223051,0.154992,0.133488,1,1
3818,96,0.224881,0.179188,0.109924,0.292674,0.213988,0.245997,0.220119,1,1
3828,96,0.237915,0.201973,0.199454,0.183369,0.176717,0.165627,0.087980,1,1
3839,96,0.150195,0.201090,0.169960,0.236569,0.289964,0.238306,0.167210,1,1
3808,96,0.202058,0.258844,0.211349,0.269503,0.210703,0.297152,0.164897,1,1
3836,96,0.179778,0.177624,0.151778,0.200095,0.180109,0.280897,0.274646,1,1
3810,96,0.236453,0.152084,0.268248,0.181744,0.257992,0.268130,0.209790,1,1
3817,96,0.196361,0.109452,0.162973,0.176214,0.327421,0.226550,0.207507,1,1
3820,96,0.192096,0.132885,0.170423,0.149500,0.210088,0.196663,0.209572,1,1
3831,96,0.229603,0.133460,0.147067,0.199461,0.212162,0.243056,0.124215,1,1
3838,96,0.180396,0.243656,0.231248,0.135992,0.234342,0.282944,0.107427,1,1
3819,96,0.213882,0.222855,0.182151,0.157758,0.270660,0.204865,0.161408,1,1
3807,96,0.117000,0.223545,0.208396,0.189169,0.281358,0.200726,0.147671,1,1
3815,96,0.227069,0.139536,0.200569,0.181205,0.275973,0.266278,0.157541,1,1
3814,96,0.230923,0.187559,0.294823,0.131811,0.252167,0.188442,0.149259,1,1
3853,97,0.179161,0.161876,0.235545,0.254170,0.253441,0.201913,0.187764,1,1
3877,97,0.167722,0.134410,0.078812,0.134053,0.105576,0.227983,0.163461,1,1
3872,97,0.186189,0.163769,0.142352,0.223606,0.232988,0.251975,0.112177,1,1
3860,97,0.257127,0.208911,0.201326,0.265806,0.225680,0.253770,0.174296,1,1
3843,97,0.371316,0.271606,0.201524,0.244771,0.217237,0.271113,0.205475,1,0
3852,97,0.143424,0.144808,0.097858,0.270070,0.270839,0.218472,0.184088,1,1
3876,97,0.267601,0.193440,0.163077,0.212164,0.179096,0.156490,0.226233,1,1
3867,97,0.145216,0.148387,0.226899,0.243070,0.191018,0.263499,0.131799,1,1
3851,97,0.201252,0.253608,0.176059,0.217453,0.257209,0.231094,0.192671,1,1
3869,97,0.062059,0.109177,0.195230,0.167364,0.244413,0.149975,0.229593,0,1
3856,97,0.132849,0.230955,0.210653,0.224538,0.155928,0.274746,0.174334,1,1
3842,97,0.161586,0.184603,0.214758,0.229931,0.275011,0.271340,0.199312,1,1
3878,97,0.185592,0.240888,0.218142,0.268050,0.158864,0.178414,0.141062,1,1
3868,97,0.142620,0.253382,0.164499,0.211642,0.236366,0.217273,0.178057,1,1
3871,97,0.184338,0.164839,0.129445,0.167355,0.218889,0.223130,0.095652,1,1
3844,97,0.139659,0.242995,0.279320,0.310917,0.255264,0.252321,0.203642,1,1
3841,97,0.251573,0.210363,0.201067,0.254598,0.288331,0.243119,0.347373,1,1
3865,97,0.174461,0.197354,0.221564,0.157222,0.234942,0.202342,0.211141,1,1
3850,97,0.246955,0.225157,0.212816,0.304759,0.203315,0.219368,0.177377,1,1
3855,97,0.167699,0.244595,0.128984,0.213716,0.235008,0.243443,0.204080,1,1
3858,97,0.245960,0.126148,0.251773,0.140539,0.226346,0.236314,0.136206,1,1
3879,97,0.220657,0.129172,0.239338,0.199066,0.213729,0.167652,0.130981,1,1
3862,97,0.226384,0.091783,0.222150,0.271481,0.165994,0.213392,0.117499,1,1
3866,97,0.181810,0.254515,0.110969,0.210635,0.214602,0.086296,0.136245,1,1
3847,97,0.192727,0.170664,0.167079,0.298716,0.221932,0.271373,0.204326,1,1
3845,97,0.198463,0.175544,0.170896,0.247562,0.182682,0.157940,0.221013,1,1
3846,97,0.183816,0.175960,0.202373,0.237434,0.247529,0.195544,0.208607,1,1
3849,97,0.205512,0.111037,0.106223,0.211065,0.293136,0.154830,0.214376,1,1
3873,97,0.208423,0.181306,0.149338,0.241326,0.179741,0.170039,0.098489,1,1
3840,97,0.210607,0.163058,0.173176,0.253808,0.083630,0.211950,0.146597,1,1
3857,97,0.206756,0.179389,0.106962,0.309080,0.364481,0.285130,0.234170,1,1
3870,97,0.123373,0.257865,0.177417,0.117479,0.150392,0.221022,0.224912,1,1
3874,97,0.055745,0.118626,0.220999,0.145532,0.253937,0.174056,0.131588,0,1
3861,97,0.219025,0.183713,0.204616,0.168608,0.207215,0.226230,0.203762,1,1
3854,97,0.191420,0.106932,0.163568,0.104643,0.160535,0.191494,0.274531,1,1
3859,97,0.320764,0.202844,0.237851,0.214541,0.219656,0.160528,0.218806,1,1
3863,97,0.223918,0.181200,0.162716,0.277985,0.166513,0.174512,0.165918,1,1
3848,97,0.083828,0.254241,0.183912,0.191949,0.276438,0.197190,0.205720,1,1
3875,97,0.231549,0.101078,0.218210,0.137620,0.256402,0.249527,0.165858,1,1
3864,97,0.261006,0.203343,0.106329,0.285542,0.176558,0.208427,0.189604,1,1
3909,98,0.304093,0.189077,0.184429,0.213390,0.189503,0.228798,0.203300,1,1
3884,98,0.215512,0.275658,0.250968,0.240418,0.208119,0.229556,0.220092,1,1
3919,98,0.203125,0.187542,0.257767,0.198283,0.246117,0.170807,0.235836,1,1
3907,98,0.224229,0.093433,0.056017,0.208241,0.280409,0.183360,0.116951,1,1
3918,98,0.214381,0.158191,0.158812,0.110974,0.271007,0.200831,0.249695,1,1
3888,98,0.152815,0.145736,0.238085,0.160795,0.226874,0.235425,0.209141,1,1
3903,98,0.216061,0.140603,0.178292,0.169625,0.209980,0.249353,0.157187,1,1
3883,98,0.209269,0.160474,0.241313,0.190427,0.290597,0.218040,0.115456,1,1
3885,98,0.260980,0.263800,0.115078,0.178295,0.210203,0.210974,0.221103,1,1
3893,98,0.175992,0.207524,0.142545,0.178420,0.216179,0.228279,0.329964,1,1
3908,98,0.172335,0.157050,0.180271,0.152591,0.340637,0.290604,0.154167,1,1
3901,98,0.299737,0.157262,0.258021,0.276025,0.248564,0.264634,0.138120,1,1
3880,98,0.276992,0.130337,0.040512,0.255415,0.218138,0.284655,0.206873,1,1
3899,98,0.149384,0.191625,0.236894,0.186528,0.227841,0.209939,0.215138,1,1
3889,98,0.214078,0.267686,0.169525,0.301678,0.260527,0.223864,0.231100,1,1
3898,98,0.287869,0.210770,0.163675,0.200314,0.193136,0.202983,0.157046,1,1
3902,98,0.162099,0.239972,0.108173,0.245318,0.245982,0.238509,0.221496,1,1
3895,98,0.163527,0.270844,0.252770,0.123562,0.224942,0.233656,0.105094,1,1
3910,98,0.207051,0.156779,0.158341,0.204644,0.268468,0.207382,0.138197,1,1
3917,98,0.152273,0.154087,0.155802,0.199207,0.287668,0.299055,0.147720,1,1
3912,98,0.155251,0.192173,0.166082,0.210232,0.259716,0.158700,0.137816,1,1
3892,98,0.198824,0.213753,0.182206,0.274713,0.337134,0.229768,0.240268,1,1
3881,98,0.199744,0.284324,0.142891,0.190528,0.224985,0.194177,0.193240,1,1
3887,98,0.167599,0.250924,0.224016,0.195691,0.215649,0.309374,0.167956,1,1
3905,98,0.196766,0.184153,0.130467,0.144367,0.239323,0.120038,0.241025,1,1
3882,98,0.148700,0.200002,0.271194,0.247124,0.269984,0.215130,0.193634,1,1
3913,98,0.136207,0.209200,0.179055,0.260442,0.174291,0.188367,0.124347,1,1
3891,98,0.209828,0.190027,0.179660,0.310074,0.238636,0.244986,0.206252,1,1
3896,98,0.222985,0.225521,0.186534,0.196905,0.275005,0.205226,0.174314,1,1
3916,98,0.137663,0.139844,0.148437,0.195612,0.196540,0.166417,0.207457,1,1
3911,98,0.177531,0.121774,0.188068,0.217598,0.254830,0.227958,0.124751,1,1
3906,98,0.146823,0.230030,0.149506,0.183604,0.300067,0.149051,0.181443,1,1
3900,98,0.280379,0.151444,0.238177,0.229489,0.206979,0.196394,0.158821,1,1
3894,98,0.216458,0.218173,0.204188,0.290829,0.261480,0.163706,0.219561,1,1
3897,98,0.117583,0.181705,0.270188,0.216073,0.240105,0.227797,0.189683,1,1
3886,98,0.273310,0.181264,0.107942,0.185121,0.218784,0.210087,0.162428,1,1
3915,98,0.226450,0.062498,0.206838,0.196551,0.255684,0.235490,0.115477,1,1
3914,98,0.189937,0.218262,0.256232,0.133426,0.321202,0.297057,0.096592,1,1
3890,98,0.171910,0.166395,0.276532,0.218547,0.309979,0.259658,0.239680,1,1
3904,98,0.167921,0.182421,0.161864,0.281067,0.188182,0.182356,0.199882,1,1
3924,99,0.156652,0.188681,0.177271,0.321323,0.314734,0.229655,0.231290,1,1
3937,99,0.215310,0.171628,0.215291,0.281365,0.245327,0.242708,0.270121,1,1
3936,99,0.249584,0.254101,0.187861,0.147451,0.335840,0.178314,0.174805,1,1
3956,99,0.306059,0.151871,0.149587,0.201502,0.188421,0.201438,0.163842,1,1
3941,99,0.257605,0.209758,0.160763,0.070300,0.277203,0.236225,0.123543,1,1
3935,99,0.200474,0.191858,0.226864,0.219717,0.203059,0.209365,0.186986,1,1
3938,99,0.163794,0.201690,0.200902,0.250699,0.250549,0.286451,0.103720,1,1
3946,99,0.222702,0.165878,0.250565,0.271601,0.243223,0.212575,0.087579,1,1
3945,99,0.235051,0.210120,0.203828,0.163537,0.287382,0.219266,0.240714,1,1
3954,99,0.227006,0.242863,0.109591,0.203071,0.236128,0.259932,0.125423,1,1
3959,99,0.233725,0.114278,0.174723,0.172851,0.206086,0.119394,0.212911,1,1
3948,99,0.160841,0.197836,0.150333,0.209723,0.307854,0.239784,0.172807,1,1
3947,99,0.199235,0.145410,0.162602,0.240999,0.305157,0.196997,0.184538,1,1
3940,99,0.121947,0.217697,0.145009,0.214181,0.264349,0.157078,0.210650,1,1
3920,99,0.201270,0.184786,0.097969,0.276778,0.225325,0.249699,0.225228,1,1
3943,99,0.236311,0.128936,0.132799,0.213986,0.171060,0.227558,0.102560,1,1
3921,99,0.083522,0.218251,0.201977,0.179517,0.253585,0.185148,0.259506,1,1
3949,99,0.158248,0.222512,0.121199,0.235825,0.233087,0.307265,0.279235,1,1
3925,99,0.239883,0.226299,0.268997,0.232798,0.212614,0.154971,0.154012,1,1
3928,99,0.222048,0.196842,0.156407,0.233907,0.162713,0.209658,0.183247,1,1
3952,99,0.223883,0.176633,0.227808,0.187584,0.245798,0.098890,0.153732,1,1
3932,99,0.162139,0.155544,0.253543,0.245914,0.152151,0.278376,0.197404,1,1
3939,99,0.202343,0.174358,0.244573,0.210948,0.311869,0.200117,0.189504,1,1
3957,99,0.254098,0.169340,0.127756,0.257165,0.224465,0.176485,0.143453,1,1
3955,99,0.269865,0.248169,0.191409,0.138356,0.205623,0.162982,0.144587,1,1
3930,99,0.213339,0.184087,0.271474,0.232392,0.322502,0.178871,0.248648,1,1
3944,99,0.177816,0.148164,0.240176,0.227017,0.170858,0.157819,0.103957,1,1
3958,99,0.176220,0.300016,0.086733,0.208519,0.284357,0.223851,0.215432,1,1
3929,99,0.076975,0.103503,0.206763,0.254055,0.258962,0.263228,0.232942,1,1
3933,99,0.190368,0.207222,0.245361,0.256084,0.263457,0.057592,0.192578,1,1
3927,99,0.203185,0.174668,0.204988,0.294750,0.284315,0.184204,0.207849,1,1
3951,99,0.260854,0.161200,0.185971,0.210312,0.278403,0.210398,0.140460,1,1
3923,99,0.220242,0.211355,0.174723,0.244923,0.181525,0.198028,0.193803,1,1
3953,99,0.171546,0.180707,0.174007,0.239984,0.254390,0.180613,0.198808,1,1
3922,99,0.217575,0.179384,0.175516,0.199656,0.197672,0.221146,0.151392,1,1
3926,99,0.171344,0.151435,0.197111,0.196456,0.193415,0.255372,0.272852,1,1
3934,99,0.193686,0.197689,0.193586,0.255823,0.287792,0.196301,0.138865,1,1
3942,99,0.147646,0.254764,0.237633,0.236565,0.209894,0.182514,0.227074,1,1
3950,99,0.221190,0.127924,0.166555,0.229440,0.261739,0.220043,0.134095,1,1
3931,99,0.214751,0.289577,0.174209,0.229752,0.282299,0.246520,0.244746,1,1
3984,100,0.234168,0.214844,0.274890,0.300511,0.298039,0.250748,0.126100,1,1
3982,100,0.192048,0.160319,0.160330,0.209195,0.226087,0.191157,0.221433,1,1
3966,100,0.275921,0.144692,0.223346,0.180679,0.294896,0.178832,0.181375,1,1
3994,100,0.201679,0.230427,0.268208,0.147907,0.172025,0.321154,0.170925,1,1
3960,100,0.229034,0.120059,0.258439,0.102549,0.184656,0.235864,0.237961,1,1
3971,100,0.135332,0.187642,0.238743,0.118092,0.289993,0.252725,0.118242,1,1
3986,100,0.248959,0.189171,0.191971,0.199885,0.227255,0.153642,0.168892,1,1
3973,100,0.196162,0.303734,0.164986,0.214173,0.123341,0.291596,0.250527,1,1
3962,100,0.103957,0.066326,0.237574,0.268726,0.257961,0.175633,0.208460,1,1
3978,100,0.279313,0.189099,0.289847,0.186698,0.290586,0.297545,0.144419,1,1
3981,100,0.209541,0.126640,0.124651,0.254687,0.265913,0.254326,0.167768,1,1
3961,100,0.179158,0.259530,0.175349,0.229129,0.284993,0.292756,0.239937,1,1
3991,100,0.188033,0.235043,0.261411,0.196677,0.324216,0.193938,0.171333,1,1
3998,100,0.199402,0.241698,0.183048,0.200786,0.252423,0.159039,0.130896,1,1
3967,100,0.237152,0.169768,0.165587,0.367846,0.248198,0.220504,0.247141,1,1
3977,100,0.222091,0.219646,0.206268,0.232402,0.212317,0.282439,0.098082,1,1
3974,100,0.254393,0.209756,0.202800,0.198239,0.194551,0.173358,0.240056,1,1
3999,100,0.290067,0.094823,0.105720,0.117509,0.221382,0.217797,0.211432,1,1
3970,100,0.193358,0.169157,0.158454,0.202921,0.209493,0.193336,0.210220,1,1
3980,100,0.258339,0.199801,0.113760,0.213274,0.266735,0.163296,0.200054,1,1
3969,100,0.138515,0.196881,0.167229,0.179054,0.228432,0.234980,0.274906,1,1
3988,100,0.092313,0.212934,0.210228,0.269893,0.255197,0.197334,0.142892,1,1
3992,100,0.202691,0.255703,0.212790,0.294197,0.245583,0.193273,0.108278,1,1
3995,100,0.199479,0.209391,0.145629,0.225361,0.255582,0.198812,0.185530,1,1
3972,100,0.135876,0.135967,0.193174,0.266025,0.202748,0.243832,0.182714,1,1
3989,100,0.202939,0.149765,0.163118,0.261540,0.242854,0.215664,0.207869,1,1
3963,100,0.172748,0.249010,0.210515,0.290633,0.230468,0.250935,0.308061,1,1
3968,100,0.213411,0.199091,0.230747,0.256986,0.251317,0.229509,0.165330,1,1
3990,100,0.168210,0.145405,0.250066,0.216287,0.263629,0.184022,0.211747,1,1
3985,100,0.197790,0.123458,0.239429,0.245001,0.291654,0.172310,0.092484,1,1
3996,100,0.178699,0.150144,0.210383,0.170737,0.207405,0.249916,0.144021,1,1
3993,100,0.266421,0.150197,0.228087,0.126641,0.256476,0.281097,0.205380,1,1
3979,100,0.285493,0.161585,0.197733,0.311636,0.318070,0.256369,0.228292,1,1
3983,100,0.229084,0.175916,0.260230,0.177007,0.199833,0.273194,0.181988,1,1
3965,100,0.278898,0.071053,0.167883,0.218832,0.224076,0.201416,0.155991,1,1
3964,100,0.184354,0.210727,0.268162,0.092085,0.217234,0.236033,0.251402,1,1
3975,100,0.220757,0.234613,0.312419,0.171800,0.273307,0.248282,0.195420,1,1
3987,100,0.126236,0.272077,0.182233,0.262394,0.284153,0.211095,0.256973,1,1
3997,100,0.260969,0.139944,0.296217,0.172982,0.298024,0.224348,0.257207,1,1
3976,100,0.199158,0.144817,0.253907,0.245841,0.293111,0.275574,0.181369,1,1