@relation stream_gen

@attribute global_id NUMERIC
@attribute timestamp NUMERIC
@attribute f1 NUMERIC
@attribute f2 NUMERIC
@attribute f3 NUMERIC
@attribute f4 NUMERIC
@attribute f5 NUMERIC
@attribute f6 NUMERIC
@attribute f7 NUMERIC
@attribute class_0 {0,1}
@attribute class_1 {0,1}

@data
28,1,-0.884302,0.197215,-0.351310,-0.307304,-0.166242,-0.320577,-0.382444,1,1
17,1,-0.795908,0.177741,-0.233494,-0.259712,-0.256040,-0.210822,-0.283474,1,1
18,1,-0.787546,0.158836,-0.266195,-0.316884,-0.222082,-0.182639,-0.290672,1,1
10,1,-0.892552,0.192153,-0.299095,-0.305714,-0.201761,-0.278015,-0.355166,1,1
36,1,-0.827073,0.296185,-0.321816,-0.244524,-0.220104,-0.330794,-0.385521,1,1
9,1,-0.784142,0.182327,-0.322643,-0.275014,-0.332684,-0.223727,-0.327977,1,1
38,1,-0.763306,0.122724,-0.277589,-0.317394,-0.296403,-0.271474,-0.302088,1,1
27,1,-0.842993,0.255174,-0.279520,-0.302221,-0.243054,-0.278269,-0.358565,1,1
32,1,-0.770517,0.130652,-0.285724,-0.333282,-0.216382,-0.306987,-0.363662,1,1
3,1,-0.825966,0.132350,-0.337521,-0.293174,-0.276483,-0.282446,-0.314066,1,1
15,1,-0.845095,0.185951,-0.334385,-0.318259,-0.263252,-0.320487,-0.371858,1,1
26,1,-0.774915,0.234919,-0.381147,-0.337431,-0.248586,-0.335763,-0.343039,1,1
2,1,-0.867078,0.088102,-0.382967,-0.390820,-0.219533,-0.267236,-0.304279,1,1
35,1,-0.718134,0.220311,-0.261280,-0.347545,-0.285290,-0.229765,-0.289055,1,1
5,1,-0.753603,0.126589,-0.304122,-0.341094,-0.225574,-0.261976,-0.341403,1,1
16,1,-0.850224,0.169122,-0.365352,-0.340638,-0.228807,-0.240788,-0.360725,1,1
24,1,-0.819871,0.251232,-0.337518,-0.294559,-0.311203,-0.265531,-0.252166,1,1
33,1,-0.762586,0.174153,-0.311686,-0.323279,-0.374377,-0.250294,-0.395847,1,1
37,1,-0.691674,0.243424,-0.258599,-0.275352,-0.339960,-0.234302,-0.353998,1,1
20,1,-0.780706,0.143179,-0.338327,-0.309551,-0.221172,-0.299821,-0.241665,1,1
25,1,-0.772093,0.219527,-0.402549,-0.294102,-0.234562,-0.295211,-0.200746,1,1
0,1,-0.827008,0.066541,-0.281778,-0.269352,-0.226264,-0.274400,-0.410994,1,1
11,1,-0.773420,0.233319,-0.312791,-0.306268,-0.172364,-0.173673,-0.325177,1,1
22,1,-0.780275,0.100654,-0.373051,-0.281404,-0.280197,-0.220030,-0.268933,1,1
19,1,-0.745697,0.291005,-0.254818,-0.335763,-0.280686,-0.291123,-0.339100,1,1
7,1,-0.743553,0.249981,-0.242328,-0.169165,-0.315568,-0.290634,-0.247990,1,1
12,1,-0.799455,0.255492,-0.234023,-0.236432,-0.351998,-0.235722,-0.365108,1,1
30,1,-0.792337,0.114149,-0.309675,-0.326918,-0.311222,-0.313139,-0.332912,1,1
34,1,-0.777170,0.212695,-0.440035,-0.239127,-0.269074,-0.344163,-0.341100,1,1
23,1,-0.850334,0.164890,-0.359138,-0.301431,-0.236937,-0.266684,-0.398016,1,1
29,1,-0.791601,0.146344,-0.313225,-0.273655,-0.369140,-0.218176,-0.364225,1,1
1,1,-0.809631,0.193034,-0.204269,-0.276135,-0.301745,-0.226557,-0.347259,1,1
4,1,-0.806010,0.213175,-0.323742,-0.214091,-0.270101,-0.328947,-0.257456,1,1
13,1,-0.836862,0.252820,-0.253002,-0.240905,-0.288979,-0.241437,-0.307956,1,1
31,1,-0.780358,0.193231,-0.300493,-0.258021,-0.292551,-0.286148,-0.313051,1,1
8,1,-0.746323,0.192034,-0.294392,-0.213807,-0.239300,-0.229763,-0.328924,1,1
14,1,-0.842438,0.284095,-0.301714,-0.265473,-0.242126,-0.249814,-0.283300,1,1
39,1,-0.759182,0.209150,-0.303586,-0.252864,-0.333299,-0.200330,-0.256090,1,1
21,1,-0.825678,0.238529,-0.321391,-0.411705,-0.310195,-0.291040,-0.313313,1,1
6,1,-0.770935,0.165990,-0.234603,-0.296693,-0.271402,-0.284817,-0.252385,1,1
43,2,-0.813591,0.197296,-0.281313,-0.351752,-0.250864,-0.241381,-0.389700,1,1
61,2,-0.763004,0.175480,-0.394543,-0.226706,-0.195977,-0.371916,-0.357149,1,1
73,2,-0.784746,0.190222,-0.321340,-0.280013,-0.203895,-0.248019,-0.276629,1,1
49,2,-0.792168,0.240451,-0.257849,-0.288444,-0.314595,-0.268113,-0.382217,1,1
75,2,-0.826811,0.149872,-0.330708,-0.282648,-0.291222,-0.268678,-0.368020,1,1
44,2,-0.906912,0.223601,-0.283077,-0.371652,-0.235996,-0.230456,-0.228301,1,1
62,2,-0.843325,0.114772,-0.265284,-0.243373,-0.271276,-0.290230,-0.320674,1,1
64,2,-0.838163,0.097456,-0.234154,-0.369095,-0.181607,-0.244725,-0.318678,1,1
51,2,-0.773615,0.152875,-0.303503,-0.292163,-0.305262,-0.369425,-0.308684,1,1
57,2,-0.781270,0.255525,-0.336765,-0.221905,-0.250648,-0.270199,-0.315749,1,1
65,2,-0.872592,0.142473,-0.297581,-0.244020,-0.281966,-0.326670,-0.361941,1,1
72,2,-0.794717,0.247740,-0.326772,-0.303316,-0.201302,-0.289336,-0.378518,1,1
52,2,-0.793316,0.210590,-0.227971,-0.333369,-0.285945,-0.192019,-0.306159,1,1
58,2,-0.825003,0.148041,-0.265423,-0.283092,-0.285230,-0.296433,-0.219308,1,1
78,2,-0.799690,0.147582,-0.264077,-0.339077,-0.324048,-0.314945,-0.279401,1,1
67,2,-0.769287,0.099731,-0.253052,-0.313594,-0.258101,-0.267104,-0.338056,1,1
47,2,-0.838254,0.224119,-0.257302,-0.300448,-0.228298,-0.407435,-0.271031,1,1
77,2,-0.828315,-0.003848,-0.378832,-0.275976,-0.319418,-0.294309,-0.308951,0,1
48,2,-0.804211,0.144069,-0.279603,-0.211347,-0.286293,-0.384156,-0.282932,1,1
71,2,-0.826214,0.175284,-0.393678,-0.187624,-0.281514,-0.262508,-0.324599,1,1
50,2,-0.861216,0.245676,-0.332836,-0.288416,-0.162782,-0.268237,-0.274879,1,1
53,2,-0.808809,0.168729,-0.335975,-0.214112,-0.236327,-0.317890,-0.371735,1,1
63,2,-0.816798,0.096778,-0.304838,-0.262597,-0.252021,-0.272850,-0.268606,1,1
68,2,-0.771433,0.240271,-0.283294,-0.283573,-0.233847,-0.239923,-0.395494,1,1
76,2,-0.767279,0.216363,-0.244703,-0.355149,-0.306091,-0.338017,-0.345301,1,1
70,2,-0.776195,0.162264,-0.360695,-0.283523,-0.247509,-0.260823,-0.400837,1,1
59,2,-0.774745,0.151189,-0.266941,-0.288782,-0.364264,-0.301782,-0.281689,1,1
40,2,-0.763036,0.274194,-0.244157,-0.248556,-0.331578,-0.222434,-0.143846,1,1
79,2,-0.833192,0.173046,-0.364563,-0.355791,-0.288379,-0.296330,-0.279304,1,1
45,2,-0.786822,0.283812,-0.335540,-0.215001,-0.283913,-0.200961,-0.243538,1,1
41,2,-0.738447,0.198366,-0.303404,-0.298107,-0.311702,-0.337079,-0.240494,1,1
66,2,-0.746286,0.224994,-0.269616,-0.290224,-0.320383,-0.276422,-0.260491,1,1
54,2,-0.723154,0.144152,-0.247124,-0.327327,-0.264610,-0.299522,-0.322678,1,1
69,2,-0.776163,0.112125,-0.266896,-0.204189,-0.222932,-0.351999,-0.279603,1,1
56,2,-0.782164,0.229962,-0.414662,-0.312969,-0.116076,-0.245308,-0.333142,1,1
46,2,-0.786742,0.188296,-0.373801,-0.293250,-0.209515,-0.405585,-0.334119,1,1
74,2,-0.765200,0.168969,-0.245405,-0.292666,-0.314918,-0.423629,-0.283746,1,1
55,2,-0.843204,0.172846,-0.301346,-0.243809,-0.260236,-0.275658,-0.337961,1,1
60,2,-0.757458,0.182444,-0.344155,-0.257934,-0.309115,-0.245065,-0.342761,1,1
42,2,-0.894220,0.150861,-0.218511,-0.276547,-0.276029,-0.300379,-0.264268,1,1
83,3,-0.822312,0.171585,-0.342726,-0.284814,-0.218772,-0.230397,-0.285549,1,1
92,3,-0.853145,0.129083,-0.353314,-0.272747,-0.259991,-0.276113,-0.347454,1,1
93,3,-0.807129,0.225831,-0.293026,-0.194163,-0.307045,-0.258185,-0.240026,1,1
95,3,-0.828259,0.276939,-0.229130,-0.254107,-0.227651,-0.347225,-0.216666,1,1
97,3,-0.799516,0.189090,-0.324035,-0.231105,-0.240853,-0.339729,-0.232190,1,1
88,3,-0.901548,0.188856,-0.277826,-0.287786,-0.313224,-0.266968,-0.308726,1,1
115,3,-0.764062,0.244096,-0.314312,-0.277561,-0.297817,-0.261852,-0.311321,1,1
87,3,-0.708797,0.114010,-0.268050,-0.270286,-0.224562,-0.234959,-0.285741,1,1
116,3,-0.793467,0.158547,-0.322586,-0.265676,-0.231954,-0.393717,-0.310375,1,1
99,3,-0.711584,0.201515,-0.394620,-0.310258,-0.325681,-0.313340,-0.307878,1,1
90,3,-0.668845,0.162759,-0.267622,-0.314139,-0.216159,-0.312241,-0.277674,1,1
85,3,-0.790292,0.204773,-0.362808,-0.295463,-0.274610,-0.178932,-0.351077,1,1
118,3,-0.799661,0.061165,-0.253237,-0.256604,-0.307282,-0.303500,-0.246823,1,1
117,3,-0.787244,0.189522,-0.235875,-0.268412,-0.210451,-0.257646,-0.320377,1,1
94,3,-0.863262,0.136675,-0.306127,-0.242958,-0.291721,-0.330710,-0.280813,1,1
98,3,-0.807073,0.251340,-0.298718,-0.238501,-0.304251,-0.287652,-0.358508,1,1
109,3,-0.830300,0.192425,-0.302111,-0.310463,-0.241715,-0.200359,-0.179093,1,1
107,3,-0.881550,0.106095,-0.229303,-0.238205,-0.327940,-0.247315,-0.281369,1,1
100,3,-0.921636,0.229016,-0.300546,-0.290747,-0.247165,-0.223096,-0.320775,1,1
104,3,-0.735875,0.091875,-0.349549,-0.210438,-0.091080,-0.281247,-0.239853,1,1
86,3,-0.716838,0.174133,-0.317333,-0.282294,-0.313860,-0.211491,-0.265656,1,1
96,3,-0.837809,0.201693,-0.283760,-0.248650,-0.243507,-0.263227,-0.295755,1,1
91,3,-0.888223,0.176419,-0.324420,-0.229767,-0.255192,-0.345742,-0.251998,1,1
108,3,-0.792776,0.258238,-0.253501,-0.307758,-0.242600,-0.367095,-0.232303,1,1
84,3,-0.789899,0.221989,-0.312789,-0.293457,-0.185380,-0.294492,-0.263177,1,1
110,3,-0.838781,0.238327,-0.410473,-0.268373,-0.152356,-0.211326,-0.303088,1,1
112,3,-0.772710,0.135225,-0.371183,-0.229345,-0.283793,-0.334162,-0.305852,1,1
119,3,-0.801608,0.146570,-0.274899,-0.310630,-0.362556,-0.263494,-0.324046,1,1
113,3,-0.848514,0.105302,-0.301106,-0.217610,-0.217661,-0.310822,-0.341446,1,1
80,3,-0.713546,0.105325,-0.269950,-0.258102,-0.192845,-0.246442,-0.218305,1,1
103,3,-0.821638,0.294322,-0.289235,-0.280910,-0.219925,-0.269376,-0.345436,1,1
101,3,-0.785456,0.218271,-0.371308,-0.265443,-0.221598,-0.316674,-0.313390,1,1
106,3,-0.743799,0.124214,-0.294599,-0.232506,-0.223235,-0.283627,-0.206755,1,1
105,3,-0.748808,0.238941,-0.320546,-0.264014,-0.269942,-0.316342,-0.247221,1,1
89,3,-0.820538,0.237684,-0.372827,-0.275718,-0.264916,-0.263862,-0.278209,1,1
114,3,-0.838658,0.159973,-0.343164,-0.313874,-0.284073,-0.272015,-0.324514,1,1
81,3,-0.724221,0.195127,-0.304537,-0.271852,-0.283527,-0.220123,-0.166970,1,1
111,3,-0.782187,0.237261,-0.324765,-0.327707,-0.304369,-0.331206,-0.309146,1,1
82,3,-0.850116,0.198563,-0.356174,-0.317772,-0.226792,-0.288238,-0.333758,1,1
102,3,-0.792431,0.199529,-0.228349,-0.231925,-0.299829,-0.282175,-0.315620,1,1
154,4,-0.777960,0.088480,-0.283256,-0.319455,-0.374819,-0.252520,-0.283328,1,1
122,4,-0.805782,0.127721,-0.287138,-0.301168,-0.303650,-0.298210,-0.307986,1,1
137,4,-0.742837,0.258946,-0.286151,-0.250038,-0.263715,-0.186215,-0.301041,1,1
124,4,-0.795794,0.281371,-0.261624,-0.156881,-0.182601,-0.317723,-0.344945,1,1
148,4,-0.690461,0.140994,-0.206789,-0.228235,-0.248277,-0.172227,-0.309624,1,1
132,4,-0.804886,0.153203,-0.244541,-0.293656,-0.243945,-0.205870,-0.258031,1,1
149,4,-0.844327,0.244710,-0.281407,-0.302094,-0.318502,-0.307325,-0.347700,1,1
143,4,-0.777460,0.185060,-0.364522,-0.338738,-0.268923,-0.330051,-0.417473,1,1
120,4,-0.881570,0.290530,-0.269620,-0.218112,-0.342081,-0.235887,-0.276391,1,1
142,4,-0.784552,0.151129,-0.368379,-0.263160,-0.230739,-0.311286,-0.268695,1,1
138,4,-0.742526,0.149144,-0.297109,-0.317399,-0.192189,-0.303956,-0.366690,1,1
134,4,-0.758466,0.152117,-0.305381,-0.281281,-0.281937,-0.323584,-0.282627,1,1
130,4,-0.716588,0.219408,-0.413123,-0.236048,-0.216756,-0.292674,-0.316008,1,1
147,4,-0.762039,0.218301,-0.243733,-0.259795,-0.256713,-0.347527,-0.195169,1,1
139,4,-0.692173,0.216897,-0.282501,-0.335274,-0.238589,-0.306408,-0.322450,1,1
140,4,-0.709044,0.175698,-0.322256,-0.241792,-0.313819,-0.317139,-0.332912,1,1
121,4,-0.714589,0.193585,-0.287897,-0.233996,-0.226688,-0.316339,-0.321314,1,1
151,4,-0.763781,0.119728,-0.298766,-0.258661,-0.262317,-0.295576,-0.261333,1,1
156,4,-0.814724,0.255137,-0.319337,-0.293155,-0.236232,-0.231295,-0.299552,1,1
136,4,-0.760065,0.211590,-0.301252,-0.253704,-0.170864,-0.260760,-0.316153,1,1
145,4,-0.691146,0.211345,-0.282353,-0.197699,-0.283379,-0.262750,-0.255904,1,1
123,4,-0.762227,0.213545,-0.249792,-0.253254,-0.235365,-0.190490,-0.325833,1,1
153,4,-0.765788,0.118262,-0.373882,-0.306861,-0.279359,-0.375417,-0.356567,1,1
155,4,-0.879247,0.096105,-0.204292,-0.247457,-0.231474,-0.264526,-0.338934,1,1
152,4,-0.811185,0.140244,-0.343503,-0.223528,-0.394491,-0.303683,-0.324707,1,1
146,4,-0.711659,0.098015,-0.334487,-0.180686,-0.291531,-0.226453,-0.316544,1,1
127,4,-0.677062,0.204733,-0.261099,-0.194792,-0.254556,-0.270684,-0.337610,1,1
141,4,-0.769566,0.191298,-0.313712,-0.407179,-0.290374,-0.260356,-0.238608,1,1
159,4,-0.756473,0.261710,-0.348557,-0.346110,-0.244293,-0.291986,-0.274317,1,1
128,4,-0.776674,0.253492,-0.265474,-0.379104,-0.209483,-0.328387,-0.317961,1,1
129,4,-0.806019,0.162385,-0.220086,-0.268132,-0.231615,-0.257319,-0.318142,1,1
131,4,-0.755770,0.171271,-0.332520,-0.196680,-0.295006,-0.263313,-0.314870,1,1
133,4,-0.765151,0.114795,-0.312386,-0.382480,-0.212734,-0.313199,-0.217051,1,1
126,4,-0.748682,0.152963,-0.234059,-0.358220,-0.172735,-0.372385,-0.309375,1,1
125,4,-0.826465,0.209281,-0.233874,-0.285262,-0.182810,-0.299473,-0.268860,1,1
144,4,-0.716477,0.113923,-0.300076,-0.300326,-0.285996,-0.322976,-0.236905,1,1
158,4,-0.880879,0.211077,-0.308018,-0.265415,-0.277800,-0.218003,-0.266858,1,1
150,4,-0.811000,0.182835,-0.260476,-0.243194,-0.287038,-0.301011,-0.392461,1,1
157,4,-0.865442,0.141787,-0.337470,-0.330499,-0.167343,-0.337495,-0.254170,1,1
135,4,-0.746575,0.207560,-0.272075,-0.220381,-0.255371,-0.247251,-0.418141,1,1
175,5,-0.849148,0.249291,-0.263353,-0.304794,-0.292672,-0.210077,-0.229805,1,1
186,5,-0.757027,0.107317,-0.327838,-0.287949,-0.281874,-0.312534,-0.317103,1,1
189,5,-0.751224,0.213849,-0.366960,-0.288666,-0.166609,-0.349533,-0.356550,1,1
195,5,-0.783704,0.165251,-0.299002,-0.310761,-0.324988,-0.262384,-0.284723,1,1
184,5,-0.820895,0.237788,-0.238504,-0.216875,-0.263206,-0.346937,-0.275215,1,1
197,5,-0.706705,0.145224,-0.327077,-0.231338,-0.289549,-0.240684,-0.346575,1,1
182,5,-0.778799,0.229618,-0.305334,-0.313196,-0.281620,-0.252846,-0.208590,1,1
191,5,-0.789575,0.113367,-0.256145,-0.224634,-0.220717,-0.281739,-0.254063,1,1
187,5,-0.775976,0.124607,-0.282932,-0.291317,-0.270003,-0.358079,-0.234779,1,1
166,5,-0.737408,0.141981,-0.259916,-0.297034,-0.228905,-0.268422,-0.312129,1,1
183,5,-0.880501,0.237131,-0.371347,-0.257320,-0.231536,-0.243496,-0.330894,1,1
193,5,-0.747000,0.207303,-0.368739,-0.184982,-0.299254,-0.302399,-0.241756,1,1
180,5,-0.710779,0.132470,-0.360959,-0.280892,-0.313755,-0.189400,-0.237874,1,1
165,5,-0.888235,0.219737,-0.331563,-0.212227,-0.222377,-0.166995,-0.248786,1,1
188,5,-0.705230,0.168918,-0.298140,-0.234671,-0.284867,-0.319615,-0.320250,1,1
196,5,-0.698743,0.159764,-0.230201,-0.255815,-0.279262,-0.304496,-0.172972,1,1
173,5,-0.720881,0.282341,-0.337037,-0.270527,-0.165718,-0.282111,-0.280538,1,1
160,5,-0.848511,0.139305,-0.267892,-0.247045,-0.196678,-0.304511,-0.303286,1,1
185,5,-0.760372,0.264048,-0.321017,-0.193235,-0.250622,-0.289330,-0.277692,1,1
194,5,-0.805711,0.202760,-0.326640,-0.242578,-0.275286,-0.253488,-0.333027,1,1
192,5,-0.737839,0.161636,-0.292559,-0.336969,-0.255841,-0.303514,-0.370254,1,1
177,5,-0.743701,0.190621,-0.317935,-0.203627,-0.302646,-0.283686,-0.235670,1,1
178,5,-0.790803,0.180137,-0.248157,-0.308252,-0.231948,-0.166644,-0.232294,1,1
181,5,-0.722264,0.190990,-0.302828,-0.229208,-0.302862,-0.322189,-0.276434,1,1
176,5,-0.836023,0.195771,-0.315120,-0.238058,-0.247296,-0.164809,-0.280680,1,1
164,5,-0.747107,0.272963,-0.269898,-0.223458,-0.282712,-0.272651,-0.398642,1,1
163,5,-0.708745,0.161303,-0.284199,-0.248575,-0.230740,-0.314370,-0.239954,1,1
169,5,-0.740047,0.206392,-0.267693,-0.261910,-0.261384,-0.277978,-0.289571,1,1
171,5,-0.734893,0.185389,-0.345738,-0.247052,-0.214253,-0.283128,-0.250027,1,1
170,5,-0.707637,0.212432,-0.399900,-0.242692,-0.242661,-0.348988,-0.303706,1,1
172,5,-0.809897,0.233814,-0.298106,-0.296984,-0.212733,-0.321243,-0.266036,1,1
199,5,-0.733996,0.179903,-0.229202,-0.368437,-0.182035,-0.252633,-0.269295,1,1
190,5,-0.765345,0.115116,-0.348723,-0.385414,-0.254839,-0.303581,-0.331337,1,1
174,5,-0.708714,0.210387,-0.293553,-0.255398,-0.309675,-0.193077,-0.291962,1,1
168,5,-0.766657,0.180172,-0.344160,-0.262877,-0.303724,-0.374014,-0.242747,1,1
162,5,-0.763902,0.119313,-0.324538,-0.226049,-0.231522,-0.244728,-0.441946,1,1
161,5,-0.754851,0.274324,-0.267948,-0.275269,-0.210327,-0.234927,-0.207717,1,1
198,5,-0.769143,0.133641,-0.362426,-0.347337,-0.286499,-0.308606,-0.369941,1,1
179,5,-0.804973,0.184605,-0.278896,-0.253224,-0.213227,-0.255849,-0.255293,1,1
167,5,-0.710009,0.205055,-0.321748,-0.315478,-0.209036,-0.271211,-0.211658,1,1
208,6,-0.748121,0.234850,-0.272485,-0.228707,-0.117066,-0.222061,-0.348036,1,1
200,6,-0.875112,0.255286,-0.259638,-0.288595,-0.261158,-0.230061,-0.285125,1,1
215,6,-0.772931,0.239070,-0.280734,-0.241589,-0.213381,-0.283276,-0.232567,1,1
233,6,-0.762436,0.177110,-0.307057,-0.219128,-0.269441,-0.296494,-0.260338,1,1
213,6,-0.804054,0.153817,-0.253568,-0.272370,-0.167787,-0.313746,-0.348586,1,1
229,6,-0.692248,0.125550,-0.315936,-0.320219,-0.314450,-0.277877,-0.342335,1,1
230,6,-0.673617,0.220650,-0.278084,-0.306514,-0.257738,-0.274982,-0.331871,1,1
204,6,-0.771124,0.084484,-0.243060,-0.282826,-0.256249,-0.272835,-0.241487,1,1
202,6,-0.739013,0.209908,-0.369735,-0.309043,-0.220908,-0.208071,-0.249278,1,1
228,6,-0.768373,0.214813,-0.321775,-0.237504,-0.318668,-0.294343,-0.271294,1,1
216,6,-0.807404,0.162610,-0.371841,-0.243417,-0.264854,-0.267547,-0.238641,1,1
212,6,-0.842647,0.279538,-0.312563,-0.295848,-0.187178,-0.233359,-0.311722,1,1
221,6,-0.742622,0.166548,-0.315961,-0.286183,-0.210517,-0.237701,-0.415341,1,1
206,6,-0.691222,0.180091,-0.281350,-0.266673,-0.111099,-0.315559,-0.282525,1,1
222,6,-0.795579,0.272222,-0.357861,-0.343744,-0.303788,-0.397620,-0.330107,1,1
220,6,-0.791428,0.195039,-0.284514,-0.267102,-0.265204,-0.255331,-0.248084,1,1
223,6,-0.733088,0.159713,-0.216884,-0.203551,-0.229732,-0.344119,-0.383609,1,1
227,6,-0.771143,0.184240,-0.297575,-0.179008,-0.344582,-0.253842,-0.320630,1,1
211,6,-0.785961,0.186546,-0.223457,-0.217312,-0.231801,-0.286353,-0.285187,1,1
209,6,-0.728709,0.217594,-0.311900,-0.292858,-0.225721,-0.255996,-0.255640,1,1
231,6,-0.754984,0.168174,-0.321851,-0.271100,-0.262676,-0.218127,-0.307047,1,1
239,6,-0.778652,0.151080,-0.294941,-0.277559,-0.221966,-0.294585,-0.278942,1,1
207,6,-0.725643,0.193005,-0.240019,-0.176466,-0.338189,-0.333761,-0.282699,1,1
234,6,-0.834849,0.207357,-0.250551,-0.321543,-0.236004,-0.319987,-0.317938,1,1
203,6,-0.737579,0.183742,-0.185832,-0.240027,-0.184884,-0.273798,-0.251404,1,1
219,6,-0.739058,0.188350,-0.298991,-0.242676,-0.274216,-0.227384,-0.270299,1,1
214,6,-0.740739,0.256868,-0.376581,-0.223934,-0.269636,-0.242392,-0.234578,1,1
210,6,-0.732262,0.186491,-0.221445,-0.279040,-0.183828,-0.218088,-0.310314,1,1
217,6,-0.780321,0.262954,-0.224932,-0.151645,-0.160649,-0.233944,-0.294636,1,1
201,6,-0.743708,0.205832,-0.297164,-0.203224,-0.138155,-0.280503,-0.360858,1,1
238,6,-0.751290,0.182140,-0.354781,-0.165935,-0.291391,-0.249348,-0.212355,1,1
205,6,-0.686024,0.211676,-0.234806,-0.205954,-0.165492,-0.290097,-0.318748,1,1
224,6,-0.682309,0.168171,-0.173516,-0.330468,-0.286489,-0.222770,-0.271240,1,1
225,6,-0.736211,0.143744,-0.194676,-0.206099,-0.188501,-0.361934,-0.264349,1,1
218,6,-0.721584,0.217779,-0.251103,-0.279505,-0.252663,-0.260837,-0.344995,1,1
235,6,-0.846095,0.208235,-0.216446,-0.287784,-0.378393,-0.202766,-0.242550,1,1
232,6,-0.669951,0.254483,-0.304762,-0.230325,-0.174411,-0.272397,-0.333033,1,1
226,6,-0.697892,0.206168,-0.278993,-0.179503,-0.185590,-0.264543,-0.346029,1,1
236,6,-0.675729,0.152702,-0.261071,-0.320388,-0.238092,-0.329610,-0.254626,1,1
237,6,-0.707483,0.220088,-0.240159,-0.218174,-0.208886,-0.243321,-0.339706,1,1
271,7,-0.855788,0.205513,-0.266033,-0.325656,-0.246112,-0.283528,-0.366879,1,1
251,7,-0.775967,0.212728,-0.388709,-0.237877,-0.185860,-0.215935,-0.300869,1,1
242,7,-0.762434,0.175025,-0.287915,-0.251417,-0.175685,-0.327488,-0.256218,1,1
275,7,-0.751446,0.210753,-0.193343,-0.234020,-0.212491,-0.278957,-0.367201,1,1
250,7,-0.742156,0.176935,-0.274967,-0.237580,-0.155049,-0.194088,-0.285979,1,1
278,7,-0.719681,0.225974,-0.281965,-0.306858,-0.167946,-0.102962,-0.188867,1,1
269,7,-0.746504,0.147997,-0.209686,-0.298740,-0.251651,-0.293788,-0.356130,1,1
267,7,-0.712132,0.252555,-0.221240,-0.298369,-0.280547,-0.294754,-0.274093,1,1
243,7,-0.743395,0.204706,-0.273668,-0.198826,-0.198055,-0.298296,-0.290506,1,1
241,7,-0.798775,0.221784,-0.203506,-0.319924,-0.206220,-0.266085,-0.316824,1,1
268,7,-0.787637,0.146276,-0.312543,-0.174027,-0.304835,-0.235961,-0.379169,1,1
260,7,-0.688211,0.189658,-0.416736,-0.288279,-0.261809,-0.232676,-0.308812,1,1
279,7,-0.791569,0.199203,-0.293199,-0.247399,-0.217896,-0.130257,-0.324952,1,1
259,7,-0.650878,0.169524,-0.273329,-0.220965,-0.234029,-0.275823,-0.243885,1,1
256,7,-0.820263,0.144460,-0.170236,-0.182374,-0.255455,-0.274298,-0.256533,1,1
254,7,-0.639605,0.244043,-0.233503,-0.171001,-0.164182,-0.263023,-0.303168,1,1
277,7,-0.697979,0.182355,-0.289929,-0.174850,-0.199342,-0.293574,-0.325724,1,1
273,7,-0.731046,0.248471,-0.342300,-0.319829,-0.149434,-0.400558,-0.244067,1,1
261,7,-0.709561,0.091826,-0.273683,-0.314265,-0.163435,-0.263549,-0.286399,1,1
246,7,-0.730157,0.246701,-0.243795,-0.343569,-0.152010,-0.169585,-0.222942,1,1
266,7,-0.766484,0.197810,-0.301448,-0.210247,-0.260835,-0.254783,-0.333183,1,1
252,7,-0.754578,0.144638,-0.219716,-0.200802,-0.310319,-0.363899,-0.275241,1,1
255,7,-0.696644,0.251655,-0.239771,-0.203065,-0.274905,-0.279232,-0.301354,1,1
262,7,-0.769539,0.173784,-0.222825,-0.237339,-0.232107,-0.298339,-0.364715,1,1
258,7,-0.716871,0.148308,-0.299844,-0.256458,-0.199651,-0.204767,-0.321731,1,1
263,7,-0.800065,0.132736,-0.295694,-0.254480,-0.205217,-0.214237,-0.268606,1,1
253,7,-0.663621,0.305755,-0.309322,-0.271144,-0.203133,-0.348824,-0.185834,1,0
270,7,-0.727528,0.231109,-0.350662,-0.279053,-0.211878,-0.362738,-0.257449,1,1
249,7,-0.761026,0.203929,-0.312340,-0.313775,-0.232666,-0.281061,-0.347041,1,1
265,7,-0.775965,0.148904,-0.273886,-0.379810,-0.161125,-0.264736,-0.301840,1,1
244,7,-0.726190,0.252367,-0.242327,-0.316548,-0.192993,-0.205106,-0.219226,1,1
240,7,-0.836608,0.078439,-0.309070,-0.234403,-0.144098,-0.293651,-0.282573,1,1
248,7,-0.651038,0.227040,-0.279193,-0.197826,-0.204320,-0.186499,-0.315321,1,1
245,7,-0.718244,0.155263,-0.309309,-0.356359,-0.174586,-0.195709,-0.253043,1,1
247,7,-0.788215,0.237916,-0.259343,-0.160030,-0.253008,-0.229590,-0.238512,1,1
257,7,-0.716087,0.236848,-0.223922,-0.237841,-0.191756,-0.271935,-0.255118,1,1
272,7,-0.664713,0.126763,-0.354724,-0.276231,-0.162966,-0.248645,-0.301178,1,1
276,7,-0.777570,0.173000,-0.368059,-0.305973,-0.270609,-0.261007,-0.362112,1,1
274,7,-0.773768,0.066555,-0.251630,-0.260174,-0.312402,-0.331595,-0.296579,1,1
264,7,-0.674966,0.194216,-0.286647,-0.207470,-0.238644,-0.196332,-0.222185,1,1
318,8,-0.830073,0.221264,-0.324878,-0.183875,-0.253945,-0.309329,-0.249770,1,1
296,8,-0.732270,0.219404,-0.203581,-0.270346,-0.364203,-0.239037,-0.287899,1,1
312,8,-0.736907,0.171709,-0.359162,-0.277487,-0.169325,-0.245329,-0.242999,1,1
288,8,-0.665904,0.237342,-0.233195,-0.206509,-0.194548,-0.231426,-0.355741,1,1
297,8,-0.750138,0.205665,-0.310040,-0.309919,-0.235897,-0.236424,-0.287534,1,1
282,8,-0.737772,0.233338,-0.262231,-0.337114,-0.109440,-0.278016,-0.250671,1,1
283,8,-0.642165,0.151855,-0.264162,-0.217756,-0.274353,-0.198125,-0.245526,1,1
305,8,-0.692035,0.281346,-0.304491,-0.196646,-0.198540,-0.250781,-0.233723,1,1
319,8,-0.664128,0.097184,-0.301609,-0.283129,-0.193645,-0.271202,-0.311760,1,1
301,8,-0.727268,0.225821,-0.251334,-0.233648,-0.257902,-0.364448,-0.350246,1,1
295,8,-0.676152,0.139292,-0.267070,-0.231659,-0.207941,-0.315348,-0.244721,1,1
294,8,-0.696249,0.197732,-0.258392,-0.232712,-0.140296,-0.253029,-0.247634,1,1
309,8,-0.730060,0.131988,-0.290378,-0.244392,-0.143534,-0.275720,-0.259574,1,1
290,8,-0.775146,0.275363,-0.272097,-0.234894,-0.131268,-0.158885,-0.316941,1,1
287,8,-0.710375,0.181484,-0.229157,-0.182370,-0.195435,-0.219671,-0.211789,1,1
298,8,-0.700333,0.181279,-0.261766,-0.226489,-0.267453,-0.153313,-0.208770,1,1
316,8,-0.737615,0.093147,-0.198567,-0.225955,-0.235596,-0.196848,-0.246846,1,1
317,8,-0.740436,0.202144,-0.204867,-0.226406,-0.186237,-0.212382,-0.292829,1,1
315,8,-0.719942,0.266784,-0.268532,-0.284162,-0.114949,-0.233759,-0.293138,1,1
286,8,-0.799634,0.185510,-0.274660,-0.213790,-0.271150,-0.257190,-0.158531,1,1
289,8,-0.606413,0.299564,-0.263764,-0.179977,-0.287161,-0.255563,-0.234097,1,0
307,8,-0.656417,0.194094,-0.292616,-0.242062,-0.202135,-0.357066,-0.272662,1,1
310,8,-0.718195,0.178741,-0.238199,-0.263192,-0.202589,-0.354497,-0.230951,1,1
302,8,-0.813386,0.159219,-0.206006,-0.207771,-0.184115,-0.301136,-0.339590,1,1
311,8,-0.720409,0.192664,-0.308860,-0.220886,-0.197607,-0.287680,-0.202195,1,1
299,8,-0.691208,0.172749,-0.237154,-0.336870,-0.286310,-0.226237,-0.212516,1,1
300,8,-0.754632,0.153121,-0.292030,-0.163147,-0.186549,-0.284856,-0.267648,1,1
280,8,-0.707490,0.150363,-0.286739,-0.185237,-0.176229,-0.288144,-0.194252,1,1
308,8,-0.717693,0.112448,-0.253449,-0.238166,-0.201303,-0.288135,-0.350647,1,1
313,8,-0.741138,0.183373,-0.319422,-0.352857,-0.315428,-0.229850,-0.332541,1,1
284,8,-0.754923,0.270593,-0.308878,-0.149480,-0.191902,-0.218315,-0.339607,1,1
303,8,-0.651573,0.285728,-0.273608,-0.266163,-0.208807,-0.347613,-0.228832,1,1
306,8,-0.685001,0.150791,-0.236706,-0.298031,-0.187271,-0.282029,-0.311310,1,1
304,8,-0.689484,0.254368,-0.286216,-0.203113,-0.275257,-0.215283,-0.248481,1,1
314,8,-0.752458,0.191757,-0.305026,-0.245809,-0.210685,-0.327170,-0.320148,1,1
291,8,-0.797108,0.189600,-0.338456,-0.301016,-0.186230,-0.317322,-0.237304,1,1
281,8,-0.752344,0.229063,-0.299268,-0.259003,-0.177713,-0.236265,-0.235816,1,1
293,8,-0.698445,0.213688,-0.246133,-0.243734,-0.139524,-0.339746,-0.247208,1,1
285,8,-0.740470,0.205202,-0.396785,-0.306780,-0.240365,-0.239274,-0.153660,1,1
292,8,-0.708729,0.114285,-0.278338,-0.266562,-0.206613,-0.203646,-0.267631,1,1
350,9,-0.708362,0.205209,-0.308366,-0.111557,-0.225465,-0.274887,-0.177191,1,1
321,9,-0.701753,0.209830,-0.272113,-0.252679,-0.155057,-0.132412,-0.241209,1,1
347,9,-0.751503,0.087924,-0.319974,-0.289145,-0.199740,-0.204689,-0.287612,1,1
343,9,-0.696529,0.220673,-0.273781,-0.202223,-0.180848,-0.264897,-0.263142,1,1
352,9,-0.708926,0.235644,-0.367616,-0.202528,-0.201499,-0.257491,-0.311638,1,1
359,9,-0.782307,0.181156,-0.191811,-0.197141,-0.239056,-0.320530,-0.235840,1,1
326,9,-0.637726,0.160864,-0.327464,-0.234044,-0.233650,-0.216343,-0.222282,1,1
331,9,-0.733466,0.136543,-0.311838,-0.268658,-0.199979,-0.219469,-0.310152,1,1
329,9,-0.711497,0.170224,-0.188868,-0.237204,-0.223737,-0.276421,-0.229718,1,1
339,9,-0.749516,0.232886,-0.205904,-0.222675,-0.246358,-0.200541,-0.280613,1,1
337,9,-0.724218,0.234472,-0.075340,-0.262654,-0.087811,-0.250061,-0.291682,1,1
348,9,-0.756551,0.180045,-0.259351,-0.197828,-0.247369,-0.196552,-0.232040,1,1
338,9,-0.712075,0.139495,-0.233475,-0.219849,-0.312851,-0.269850,-0.281310,1,1
336,9,-0.734095,0.193414,-0.256352,-0.254552,-0.261859,-0.172310,-0.208926,1,1
358,9,-0.617561,0.140887,-0.215414,-0.266696,-0.218783,-0.276696,-0.299815,1,1
324,9,-0.605305,0.194492,-0.291499,-0.205539,-0.235090,-0.245762,-0.243663,1,1
335,9,-0.740753,0.149187,-0.258381,-0.178634,-0.228440,-0.225114,-0.268912,1,1
322,9,-0.742124,0.188367,-0.193462,-0.194016,-0.230000,-0.304276,-0.266738,1,1
342,9,-0.732885,0.162569,-0.383270,-0.208009,-0.272233,-0.281327,-0.347004,1,1
328,9,-0.668285,0.165853,-0.332162,-0.176527,-0.186334,-0.266540,-0.197175,1,1
330,9,-0.815973,0.205816,-0.238809,-0.191003,-0.248761,-0.216226,-0.294806,1,1
332,9,-0.670476,0.153824,-0.243698,-0.293903,-0.285460,-0.278343,-0.227383,1,1
341,9,-0.785991,0.225850,-0.289778,-0.206337,-0.218983,-0.221816,-0.370284,1,1
333,9,-0.706542,0.114102,-0.258670,-0.211949,-0.175252,-0.238687,-0.275786,1,1
340,9,-0.687729,0.210916,-0.298297,-0.288251,-0.277779,-0.261585,-0.308232,1,1
327,9,-0.677764,0.228359,-0.187338,-0.233534,-0.138102,-0.195546,-0.252373,1,1
355,9,-0.630578,0.322130,-0.281771,-0.285394,-0.260895,-0.271508,-0.339601,1,1
346,9,-0.772063,0.244663,-0.241737,-0.216444,-0.213710,-0.227059,-0.410409,1,1
351,9,-0.776296,0.135298,-0.312758,-0.288871,-0.178762,-0.290407,-0.407459,1,1
349,9,-0.750354,0.193087,-0.308793,-0.240608,-0.315781,-0.279877,-0.254155,1,1
356,9,-0.778120,0.176040,-0.310896,-0.263958,-0.202274,-0.358249,-0.207708,1,1
353,9,-0.743829,0.172806,-0.276395,-0.265349,-0.262599,-0.247924,-0.216348,1,1
320,9,-0.751329,0.174678,-0.168619,-0.302308,-0.154064,-0.197453,-0.282396,1,1
354,9,-0.792981,0.087039,-0.291078,-0.169529,-0.265463,-0.225875,-0.295448,1,1
334,9,-0.782618,0.173686,-0.203764,-0.331801,-0.269074,-0.249328,-0.232284,1,1
357,9,-0.714107,0.156873,-0.253631,-0.287233,-0.232927,-0.287828,-0.300633,1,1
345,9,-0.685930,0.294287,-0.267043,-0.267511,-0.189174,-0.254778,-0.261180,1,1
325,9,-0.657962,0.182337,-0.280677,-0.199757,-0.228887,-0.187020,-0.250144,1,1
323,9,-0.655803,0.246740,-0.186279,-0.207238,-0.200311,-0.277862,-0.216269,1,1
344,9,-0.735857,0.141546,-0.307081,-0.225206,-0.178697,-0.170221,-0.243579,1,1
376,10,-0.666162,0.222726,-0.242495,-0.322087,-0.218160,-0.243049,-0.224390,1,1
383,10,-0.706833,0.192931,-0.257158,-0.299550,-0.262051,-0.243833,-0.209318,1,1
373,10,-0.728061,0.131045,-0.112748,-0.233986,-0.190477,-0.247727,-0.233437,1,1
396,10,-0.775510,0.150650,-0.254142,-0.241444,-0.191784,-0.237424,-0.242693,1,1
388,10,-0.761415,0.154800,-0.308867,-0.232031,-0.203511,-0.268071,-0.355840,1,1
390,10,-0.722019,0.237060,-0.225654,-0.273932,-0.275188,-0.336524,-0.307105,1,1
386,10,-0.674391,0.184940,-0.304452,-0.243515,-0.210840,-0.239010,-0.242810,1,1
362,10,-0.759732,0.205196,-0.163940,-0.161026,-0.265255,-0.193660,-0.308891,1,1
366,10,-0.658032,0.215947,-0.221854,-0.173067,-0.188676,-0.251182,-0.215209,1,1
365,10,-0.687849,0.183692,-0.241777,-0.245359,-0.216816,-0.152389,-0.262925,1,1
395,10,-0.712656,0.163406,-0.235097,-0.261538,-0.233424,-0.289105,-0.197069,1,1
391,10,-0.740475,0.181020,-0.224917,-0.198770,-0.080679,-0.337875,-0.269597,1,1
397,10,-0.628012,0.252739,-0.211546,-0.202546,-0.298864,-0.320409,-0.245318,1,1
393,10,-0.650176,0.110357,-0.212652,-0.164972,-0.259227,-0.136092,-0.317755,1,1
372,10,-0.698152,0.156664,-0.250192,-0.162548,-0.190762,-0.255775,-0.224369,1,1
361,10,-0.697421,0.165705,-0.282766,-0.206743,-0.128739,-0.197764,-0.330243,1,1
363,10,-0.703561,0.150278,-0.253793,-0.164601,-0.274936,-0.291710,-0.253021,1,1
382,10,-0.705592,0.227358,-0.186791,-0.233180,-0.214768,-0.250963,-0.255442,1,1
381,10,-0.715923,0.154511,-0.293507,-0.248254,-0.106683,-0.355745,-0.226236,1,1
368,10,-0.515228,0.198138,-0.134681,-0.218353,-0.218723,-0.261073,-0.255531,1,0
377,10,-0.720464,0.171888,-0.205093,-0.299088,-0.323257,-0.274858,-0.232471,1,1
380,10,-0.653543,0.166957,-0.219979,-0.228151,-0.213254,-0.258805,-0.246210,1,1
389,10,-0.721325,0.167138,-0.284103,-0.224607,-0.181974,-0.130264,-0.271920,1,1
385,10,-0.721347,0.188376,-0.185175,-0.234901,-0.209575,-0.218018,-0.182668,1,1
392,10,-0.644689,0.113672,-0.275494,-0.263148,-0.185182,-0.316793,-0.263925,1,1
398,10,-0.728578,0.131730,-0.327285,-0.270128,-0.273532,-0.187122,-0.298663,1,1
379,10,-0.700883,0.176428,-0.230568,-0.247462,-0.316174,-0.124985,-0.257430,1,1
369,10,-0.698888,0.204944,-0.166726,-0.200628,-0.234643,-0.201556,-0.329096,1,1
367,10,-0.681592,0.238203,-0.355438,-0.243484,-0.247465,-0.250424,-0.185338,1,1
371,10,-0.601150,0.168033,-0.254829,-0.254739,-0.185529,-0.212417,-0.225226,1,1
360,10,-0.747808,0.253598,-0.274825,-0.272779,-0.181104,-0.231051,-0.237279,1,1
370,10,-0.649837,0.190243,-0.214972,-0.267793,-0.188009,-0.200904,-0.317331,1,1
384,10,-0.651420,0.195093,-0.184304,-0.193290,-0.192922,-0.223556,-0.250084,1,1
375,10,-0.804136,0.259765,-0.236072,-0.202037,-0.153355,-0.222483,-0.244051,1,1
394,10,-0.684014,0.152196,-0.260259,-0.229482,-0.158922,-0.212182,-0.217632,1,1
387,10,-0.726223,0.169249,-0.359341,-0.203563,-0.232127,-0.154612,-0.188038,1,1
374,10,-0.737598,0.245294,-0.249731,-0.192408,-0.085735,-0.152652,-0.263560,1,1
378,10,-0.731144,0.219252,-0.273414,-0.280460,-0.240204,-0.236649,-0.203058,1,1
399,10,-0.693100,0.220309,-0.272066,-0.343905,-0.100021,-0.248314,-0.198202,1,1
364,10,-0.749906,0.189088,-0.209250,-0.211612,-0.209480,-0.189045,-0.298744,1,1
406,11,-0.666931,0.271678,-0.273650,-0.148357,-0.144120,-0.280089,-0.317632,1,1
428,11,-0.703047,0.248516,-0.297495,-0.236367,-0.120459,-0.286734,-0.224963,1,1
424,11,-0.601710,0.166262,-0.187450,-0.189363,-0.285693,-0.219893,-0.230537,1,1
415,11,-0.659585,0.105326,-0.170331,-0.216929,-0.155476,-0.188725,-0.241165,1,1
410,11,-0.818499,0.155051,-0.215838,-0.165211,-0.217751,-0.254324,-0.209843,1,1
438,11,-0.671166,0.186337,-0.199496,-0.255626,-0.183922,-0.277704,-0.260453,1,1
433,11,-0.688979,0.176270,-0.160562,-0.245663,-0.172018,-0.216463,-0.296951,1,1
425,11,-0.710021,0.147574,-0.187421,-0.288080,-0.138799,-0.247721,-0.198451,1,1
429,11,-0.709797,0.117638,-0.231342,-0.300006,-0.212050,-0.179637,-0.225845,1,1
405,11,-0.653825,0.175638,-0.192927,-0.203958,-0.266964,-0.266392,-0.224008,1,1
413,11,-0.718462,0.215933,-0.295369,-0.237549,-0.147602,-0.239370,-0.159586,1,1
411,11,-0.627809,0.198592,-0.257524,-0.298508,-0.240951,-0.159864,-0.245555,1,1
422,11,-0.768544,0.202354,-0.277136,-0.200060,-0.207805,-0.201670,-0.165589,1,1
400,11,-0.746799,0.193078,-0.275032,-0.228681,-0.225334,-0.087383,-0.293168,1,1
420,11,-0.707083,0.112376,-0.273225,-0.327137,-0.147298,-0.236696,-0.200843,1,1
412,11,-0.680192,0.236287,-0.180100,-0.179040,-0.176165,-0.247201,-0.241252,1,1
436,11,-0.715054,0.214989,-0.288698,-0.239061,-0.224787,-0.154410,-0.185728,1,1
417,11,-0.736510,0.174255,-0.260757,-0.186060,-0.190658,-0.143881,-0.301967,1,1
418,11,-0.657643,0.198072,-0.193040,-0.224905,-0.239782,-0.184455,-0.216505,1,1
414,11,-0.772444,0.172674,-0.217193,-0.286574,-0.123681,-0.138807,-0.295684,1,1
437,11,-0.707883,0.076241,-0.290547,-0.199278,-0.141340,-0.188640,-0.242441,1,1
434,11,-0.714248,0.121067,-0.293217,-0.265895,-0.157534,-0.177766,-0.204101,1,1
401,11,-0.733457,0.199019,-0.180977,-0.267837,-0.224329,-0.274038,-0.242005,1,1
407,11,-0.700220,0.242286,-0.242033,-0.291340,-0.189593,-0.195215,-0.224967,1,1
426,11,-0.641181,0.231504,-0.274252,-0.173704,-0.172480,-0.222854,-0.228989,1,1
432,11,-0.729868,0.201009,-0.212241,-0.117660,-0.195420,-0.216536,-0.276072,1,1
427,11,-0.661374,0.225661,-0.270862,-0.290788,-0.264586,-0.340218,-0.248803,1,1
403,11,-0.809929,0.208360,-0.205553,-0.215552,-0.106680,-0.225526,-0.186082,1,1
431,11,-0.622280,0.095686,-0.293174,-0.273618,-0.172173,-0.287133,-0.304571,1,1
404,11,-0.640369,0.176066,-0.256224,-0.236612,-0.166370,-0.233466,-0.232022,1,1
421,11,-0.723468,0.240502,-0.196327,-0.214829,-0.280984,-0.197751,-0.178507,1,1
408,11,-0.671611,0.254777,-0.247273,-0.173602,-0.236491,-0.159488,-0.221194,1,1
409,11,-0.621671,0.282401,-0.198245,-0.230231,-0.187267,-0.256315,-0.220913,1,1
430,11,-0.608613,0.153396,-0.196520,-0.282858,-0.199891,-0.162094,-0.241115,1,1
419,11,-0.685311,0.091507,-0.269724,-0.284879,-0.234311,-0.228129,-0.289095,1,1
439,11,-0.713770,0.323718,-0.245050,-0.176282,-0.199172,-0.311724,-0.263625,1,1
423,11,-0.679445,0.141386,-0.202324,-0.158506,-0.166713,-0.278353,-0.293244,1,1
416,11,-0.669036,0.150913,-0.236579,-0.213842,-0.164075,-0.265399,-0.338550,1,1
402,11,-0.718043,0.174658,-0.217300,-0.193240,-0.165062,-0.209024,-0.305488,1,1
435,11,-0.738637,0.256755,-0.282768,-0.190430,-0.208728,-0.251234,-0.315570,1,1
462,12,-0.629958,0.141434,-0.251546,-0.196421,-0.168251,-0.175565,-0.234800,1,1
452,12,-0.643174,0.161626,-0.220699,-0.178949,-0.117274,-0.202098,-0.160171,1,1
473,12,-0.583042,0.171424,-0.330118,-0.218623,-0.182344,-0.276323,-0.206454,1,1
443,12,-0.669615,0.154927,-0.269684,-0.242921,-0.201624,-0.236724,-0.190927,1,1
478,12,-0.639902,0.157678,-0.173276,-0.251224,-0.194355,-0.166449,-0.214896,1,1
444,12,-0.660139,0.194268,-0.236458,-0.158309,-0.225603,-0.219707,-0.107202,1,1
461,12,-0.758662,0.140229,-0.274366,-0.183295,-0.085209,-0.247228,-0.283148,1,1
453,12,-0.773286,0.195209,-0.182879,-0.294807,-0.123634,-0.198856,-0.170915,1,1
455,12,-0.673190,0.162083,-0.219977,-0.158382,-0.136451,-0.149369,-0.298805,1,1
469,12,-0.629063,0.139697,-0.215095,-0.229560,-0.201559,-0.228362,-0.281188,1,1
471,12,-0.659572,0.199694,-0.262709,-0.184694,-0.253503,-0.229440,-0.247851,1,1
457,12,-0.699126,0.257189,-0.254233,-0.307316,-0.171919,-0.172400,-0.299429,1,1
465,12,-0.665905,0.091157,-0.199517,-0.140920,-0.142354,-0.134676,-0.301316,1,1
475,12,-0.659871,0.129141,-0.218574,-0.182602,-0.084155,-0.260281,-0.243535,1,1
447,12,-0.697281,0.278600,-0.121997,-0.185373,-0.188636,-0.184661,-0.183343,1,1
466,12,-0.680832,0.203070,-0.289485,-0.207162,-0.153929,-0.186794,-0.242482,1,1
445,12,-0.694522,0.196742,-0.201530,-0.193095,-0.141857,-0.287770,-0.201862,1,1
442,12,-0.650963,0.257034,-0.312696,-0.270035,-0.075608,-0.125549,-0.235648,1,1
479,12,-0.707636,0.125246,-0.338755,-0.251968,-0.251661,-0.291186,-0.258507,1,1
448,12,-0.697182,0.196425,-0.214393,-0.261671,-0.079613,-0.199211,-0.283165,1,1
472,12,-0.617602,0.194267,-0.212845,-0.208189,-0.280375,-0.223646,-0.290823,1,1
441,12,-0.655995,0.125886,-0.216131,-0.219354,-0.168145,-0.229085,-0.184372,1,1
463,12,-0.589723,0.189649,-0.332254,-0.247343,-0.236848,-0.151532,-0.173334,1,1
456,12,-0.714438,0.292735,-0.106797,-0.276504,-0.125247,-0.217031,-0.301371,1,1
474,12,-0.655292,0.282470,-0.246636,-0.253537,-0.216457,-0.241154,-0.156448,1,1
454,12,-0.749175,0.255285,-0.233115,-0.212908,-0.107176,-0.229693,-0.263847,1,1
477,12,-0.618257,0.158386,-0.232462,-0.199830,-0.168512,-0.252675,-0.153695,1,1
470,12,-0.721683,0.168561,-0.241127,-0.263744,-0.180221,-0.252516,-0.302849,1,1
460,12,-0.636999,0.126856,-0.298643,-0.174300,-0.083210,-0.277555,-0.229485,1,1
459,12,-0.651277,0.174027,-0.255920,-0.196249,-0.105589,-0.217998,-0.282510,1,1
450,12,-0.651071,0.225365,-0.270568,-0.173487,-0.140243,-0.173795,-0.194372,1,1
476,12,-0.659389,0.149749,-0.296467,-0.289793,-0.188881,-0.265151,-0.100974,1,1
468,12,-0.730188,0.160657,-0.288146,-0.312359,-0.202068,-0.156695,-0.289486,1,1
449,12,-0.676233,0.200039,-0.295812,-0.203573,-0.212127,-0.222544,-0.248868,1,1
446,12,-0.603887,0.179387,-0.230454,-0.231807,-0.138888,-0.223906,-0.232950,1,1
440,12,-0.668346,0.116437,-0.159822,-0.185395,-0.240433,-0.196699,-0.253018,1,1
467,12,-0.708774,0.207022,-0.231744,-0.240828,-0.166147,-0.264799,-0.208432,1,1
458,12,-0.641873,0.200545,-0.224579,-0.218195,-0.238294,-0.228251,-0.278164,1,1
451,12,-0.680497,0.226946,-0.254977,-0.255636,-0.213004,-0.279042,-0.188435,1,1
464,12,-0.719961,0.204807,-0.220284,-0.214522,-0.149423,-0.154548,-0.305590,1,1
481,13,-0.648698,0.171383,-0.255175,-0.202571,-0.167983,-0.203648,-0.168657,1,1
480,13,-0.714112,0.275797,-0.218244,-0.213670,-0.081573,-0.250869,-0.209717,1,1
503,13,-0.662904,0.260590,-0.222349,-0.208121,-0.197369,-0.231428,-0.316369,1,1
507,13,-0.650976,0.142143,-0.173580,-0.191477,-0.191088,-0.185573,-0.144083,1,1
519,13,-0.613558,0.227458,-0.220614,-0.219821,-0.186818,-0.183551,-0.210421,1,1
505,13,-0.701529,0.259896,-0.204616,-0.267435,-0.215137,-0.210166,-0.172349,1,1
486,13,-0.677290,0.260601,-0.236340,-0.299683,-0.246851,-0.288393,-0.306323,1,1
500,13,-0.580095,0.220809,-0.148117,-0.215683,-0.227101,-0.209781,-0.273766,1,1
483,13,-0.715622,0.182394,-0.182619,-0.170062,-0.175334,-0.200499,-0.131015,1,1
509,13,-0.548809,0.231762,-0.256185,-0.215424,-0.232861,-0.136884,-0.252782,1,1
506,13,-0.608333,0.232443,-0.216512,-0.243572,-0.272993,-0.159591,-0.250055,1,1
517,13,-0.530123,0.204598,-0.228112,-0.228701,-0.154582,-0.249043,-0.173238,1,1
485,13,-0.598053,0.288786,-0.158412,-0.208949,-0.101102,-0.207878,-0.213341,1,1
498,13,-0.681678,0.171403,-0.253502,-0.124440,-0.216464,-0.172553,-0.338808,1,1
514,13,-0.637323,0.152039,-0.233288,-0.136130,-0.151365,-0.221727,-0.233083,1,1
496,13,-0.653697,0.221609,-0.167061,-0.142342,-0.196710,-0.141068,-0.299679,1,1
492,13,-0.603128,0.219874,-0.312458,-0.148428,-0.217167,-0.244537,-0.230321,1,1
511,13,-0.699318,0.160649,-0.181202,-0.157397,-0.241805,-0.128979,-0.287929,1,1
484,13,-0.679451,0.179531,-0.323596,-0.188951,-0.194613,-0.169207,-0.282858,1,1
515,13,-0.634509,0.202081,-0.176183,-0.306921,-0.132736,-0.239986,-0.178456,1,1
490,13,-0.704485,0.095280,-0.235339,-0.114982,-0.117131,-0.202901,-0.249593,1,1
508,13,-0.608806,0.197609,-0.207659,-0.116955,-0.282638,-0.210980,-0.223740,1,1
493,13,-0.691983,0.175292,-0.262901,-0.150798,-0.111638,-0.165369,-0.204604,1,1
491,13,-0.592624,0.210245,-0.231062,-0.334342,-0.182638,-0.225355,-0.206504,1,1
516,13,-0.612291,0.153732,-0.216324,-0.114598,-0.186813,-0.241413,-0.196020,1,1
499,13,-0.743975,0.220455,-0.196771,-0.210308,-0.140828,-0.193480,-0.206582,1,1
504,13,-0.636575,0.224559,-0.275718,-0.243420,-0.190389,-0.194481,-0.264217,1,1
494,13,-0.625635,0.198185,-0.342517,-0.210168,-0.116843,-0.234092,-0.183878,1,1
513,13,-0.643501,0.196225,-0.181395,-0.235069,-0.185850,-0.269172,-0.189858,1,1
510,13,-0.611257,0.098172,-0.209144,-0.129235,-0.146144,-0.210893,-0.239370,1,1
488,13,-0.561576,0.279675,-0.197617,-0.157907,-0.099954,-0.187810,-0.234566,1,1
489,13,-0.588973,0.160932,-0.194224,-0.234793,-0.105122,-0.153719,-0.257225,1,1
518,13,-0.600528,0.164999,-0.232175,-0.168446,-0.142489,-0.188481,-0.200954,1,1
482,13,-0.674730,0.207389,-0.170528,-0.219759,-0.185574,-0.219728,-0.272174,1,1
495,13,-0.664337,0.214544,-0.363256,-0.171864,-0.097346,-0.228148,-0.287597,1,1
512,13,-0.689772,0.127010,-0.301453,-0.249343,-0.137030,-0.195307,-0.180013,1,1
501,13,-0.619995,0.170834,-0.259568,-0.180499,-0.107825,-0.252961,-0.211319,1,1
502,13,-0.597673,0.198223,-0.265216,-0.264098,-0.179653,-0.179839,-0.186787,1,1
487,13,-0.651117,0.144576,-0.313323,-0.245155,-0.088301,-0.235901,-0.248276,1,1
497,13,-0.622506,0.193810,-0.235394,-0.190202,-0.142402,-0.268712,-0.204568,1,1
548,14,-0.681674,0.245649,-0.212007,-0.222384,-0.248769,-0.310649,-0.305731,1,1
552,14,-0.726098,0.197472,-0.163867,-0.156668,-0.130022,-0.207917,-0.235821,1,1
537,14,-0.656052,0.255282,-0.171968,-0.253649,-0.168401,-0.150766,-0.164670,1,1
529,14,-0.652238,0.140577,-0.240175,-0.197461,-0.165313,-0.214061,-0.248535,1,1
541,14,-0.638610,0.123812,-0.199493,-0.181176,-0.196442,-0.209238,-0.185458,1,1
555,14,-0.606745,0.280969,-0.243716,-0.196449,-0.232740,-0.194095,-0.262106,1,1
533,14,-0.663003,0.159554,-0.176487,-0.203324,-0.224556,-0.209231,-0.212665,1,1
524,14,-0.740615,0.183521,-0.211302,-0.160456,-0.158189,-0.238707,-0.202783,1,1
558,14,-0.727003,0.204998,-0.338401,-0.105007,-0.178280,-0.104765,-0.205977,1,1
536,14,-0.604344,0.265147,-0.264251,-0.116821,-0.205051,-0.135248,-0.188152,1,1
528,14,-0.638170,0.143477,-0.195396,-0.188946,-0.139288,-0.237032,-0.232833,1,1
525,14,-0.485301,0.170198,-0.166338,-0.200367,-0.216506,-0.156058,-0.219668,1,1
545,14,-0.585763,0.205693,-0.217209,-0.143929,-0.154447,-0.242889,-0.335172,1,1
544,14,-0.613870,0.158614,-0.242531,-0.178327,-0.215113,-0.241357,-0.225733,1,1
553,14,-0.654015,0.224547,-0.221960,-0.169663,-0.196361,-0.139295,-0.198702,1,1
523,14,-0.764889,0.191388,-0.284337,-0.199633,-0.096987,-0.136231,-0.323783,1,0
535,14,-0.596356,0.131269,-0.148714,-0.170118,-0.096332,-0.157198,-0.259683,1,1
521,14,-0.602639,0.138707,-0.230247,-0.190080,-0.158079,-0.292173,-0.204506,1,1
550,14,-0.547838,0.132658,-0.203056,-0.302366,-0.169531,-0.144846,-0.322666,1,1
542,14,-0.631704,0.216130,-0.161051,-0.164525,-0.188495,-0.254639,-0.190526,1,1
556,14,-0.595768,0.143469,-0.135085,-0.210583,-0.126110,-0.132144,-0.235957,1,1
520,14,-0.602435,0.117657,-0.251410,-0.268736,-0.184423,-0.214308,-0.150434,1,1
538,14,-0.632199,0.205877,-0.261268,-0.104092,-0.112527,-0.223678,-0.233518,1,1
540,14,-0.557996,0.205589,-0.215396,-0.225272,-0.164993,-0.090247,-0.270854,1,1
534,14,-0.608137,0.190221,-0.192943,-0.160647,-0.181363,-0.219734,-0.228963,1,1
531,14,-0.560062,0.150492,-0.319498,-0.172518,-0.164156,-0.127073,-0.031285,1,1
522,14,-0.573006,0.273846,-0.198482,-0.268360,-0.100105,-0.253866,-0.262845,1,1
547,14,-0.692332,0.113545,-0.224130,-0.183586,-0.150938,-0.228838,-0.313513,1,1
557,14,-0.456624,0.150405,-0.167028,-0.204684,-0.134126,-0.067989,-0.222605,0,1
543,14,-0.584106,0.122842,-0.236906,-0.184350,-0.183388,-0.205645,-0.160638,1,1
539,14,-0.714194,0.109965,-0.187884,-0.238814,-0.144255,-0.126236,-0.148604,1,1
532,14,-0.723694,0.128392,-0.147076,-0.221260,-0.196457,-0.138098,-0.184792,1,1
546,14,-0.633592,0.344795,-0.268680,-0.180840,-0.132639,-0.184345,-0.245295,1,1
530,14,-0.623953,0.204752,-0.229733,-0.292829,-0.185493,-0.173054,-0.165131,1,1
559,14,-0.629595,0.153591,-0.134019,-0.235055,-0.191633,-0.264716,-0.270467,1,1
527,14,-0.559315,0.196922,-0.174675,-0.141081,-0.144833,-0.139503,-0.189829,1,1
551,14,-0.688691,0.132730,-0.208023,-0.070342,-0.191443,-0.146962,-0.195449,1,1
554,14,-0.585390,0.215657,-0.239995,-0.233576,-0.112210,-0.201078,-0.170806,1,1
549,14,-0.601052,0.169520,-0.275750,-0.281713,-0.126088,-0.190397,-0.291137,1,1
526,14,-0.659247,0.234551,-0.165375,-0.164799,-0.161473,-0.260640,-0.332618,1,1
576,15,-0.564928,0.154617,-0.199977,-0.086942,-0.178168,-0.162784,-0.288018,1,1
562,15,-0.580945,0.124762,-0.289881,-0.190105,-0.127156,-0.170643,-0.186744,1,1
597,15,-0.580601,0.165870,-0.312773,-0.201328,-0.191260,-0.206789,-0.126951,1,1
593,15,-0.572537,0.128841,-0.193641,-0.225684,-0.099944,-0.114123,-0.175485,1,1
579,15,-0.637852,0.194952,-0.236078,-0.172628,-0.201184,-0.151022,-0.179347,1,1
592,15,-0.600706,0.169151,-0.203177,-0.229334,-0.316017,-0.223594,-0.212290,1,1
586,15,-0.599868,0.157313,-0.284022,-0.084809,-0.103956,-0.220146,-0.253610,1,1
563,15,-0.651348,0.124641,-0.227788,-0.112307,-0.243251,-0.146771,-0.181911,1,1
574,15,-0.677484,0.219729,-0.257896,-0.160869,-0.121796,-0.186683,-0.261708,1,1
599,15,-0.568260,0.234143,-0.261437,-0.247448,-0.156424,-0.248973,-0.190965,1,1
571,15,-0.640832,0.119822,-0.231608,-0.251934,-0.218215,-0.237610,-0.207419,1,1
590,15,-0.705966,0.101337,-0.234491,-0.285282,-0.160507,-0.262094,-0.149331,1,1
570,15,-0.627292,0.245352,-0.181256,-0.220660,-0.094263,-0.151265,-0.191724,1,1
588,15,-0.643300,0.217566,-0.251338,-0.200881,-0.175442,-0.298973,-0.256832,1,1
587,15,-0.606548,0.164534,-0.219391,-0.210860,-0.205184,-0.221036,-0.326897,1,1
583,15,-0.535869,0.188878,-0.146086,-0.168676,-0.167494,-0.216132,-0.299721,1,1
585,15,-0.602308,0.188672,-0.223124,-0.225964,-0.095494,-0.208483,-0.186995,1,1
564,15,-0.652687,0.187363,-0.228858,-0.199304,-0.152379,-0.185668,-0.168960,1,1
566,15,-0.652002,0.166093,-0.178524,-0.124181,-0.175407,-0.150935,-0.182265,1,1
577,15,-0.570293,0.220290,-0.132288,-0.045190,-0.204484,-0.256721,-0.112991,1,1
561,15,-0.641204,0.089726,-0.254204,-0.159255,-0.176893,-0.187859,-0.250795,1,1
572,15,-0.521938,0.165006,-0.203562,-0.144335,-0.143348,-0.190868,-0.265249,1,1
573,15,-0.546458,0.152173,-0.114020,-0.184017,-0.097514,-0.212037,-0.269069,1,1
565,15,-0.658647,0.290812,-0.349039,-0.163756,-0.220219,-0.248344,-0.234250,1,1
591,15,-0.733417,0.161069,-0.233863,-0.202826,-0.133614,-0.218449,-0.129253,1,1
568,15,-0.584720,0.188427,-0.125334,-0.213949,-0.253319,-0.271857,-0.219237,1,1
596,15,-0.511562,0.179954,-0.184618,-0.126169,-0.133535,-0.156433,-0.248523,1,1
560,15,-0.666501,0.181767,-0.108876,-0.207535,-0.135211,-0.214853,-0.215078,1,1
598,15,-0.562050,0.070163,-0.158257,-0.173647,-0.230678,-0.131436,-0.257855,1,1
589,15,-0.623465,0.218350,-0.143706,-0.232826,-0.168558,-0.094090,-0.241329,1,1
582,15,-0.612839,0.230373,-0.174590,-0.221100,-0.171770,-0.177474,-0.188092,1,1
575,15,-0.658395,0.150695,-0.085829,-0.210567,-0.110878,-0.246233,-0.272550,1,1
581,15,-0.627425,0.064641,-0.187348,-0.252704,-0.110333,-0.223970,-0.137709,1,1
578,15,-0.691847,0.203056,-0.209102,-0.219564,-0.190676,-0.161645,-0.131557,1,1
567,15,-0.603668,0.297740,-0.126093,-0.208366,-0.112373,-0.232240,-0.249040,1,1
584,15,-0.614367,0.171788,-0.202179,-0.217666,-0.221824,-0.161581,-0.148999,1,1
595,15,-0.503733,0.272889,-0.106828,-0.260737,-0.155658,-0.261622,-0.244487,1,1
569,15,-0.689139,0.317436,-0.165393,-0.190195,-0.123436,-0.187435,-0.276633,1,0
594,15,-0.664414,0.139104,-0.219810,-0.190739,-0.096674,-0.202826,-0.184618,1,1
580,15,-0.501320,0.214512,-0.145311,-0.239402,-0.156424,-0.176932,-0.228117,1,1
604,16,-0.574723,0.145198,-0.176063,-0.153812,-0.178251,-0.077458,-0.226475,1,1
622,16,-0.566752,0.235499,-0.216946,-0.133994,-0.229874,-0.142931,-0.192578,1,1
610,16,-0.620733,0.240974,-0.218831,-0.181130,-0.157123,-0.107706,-0.095104,1,1
623,16,-0.602066,0.188012,-0.188563,-0.182717,-0.149746,-0.174034,-0.263132,1,1
633,16,-0.561117,0.181222,-0.192762,-0.184834,-0.223973,-0.192080,-0.184432,1,1
638,16,-0.600448,0.168460,-0.280565,-0.284313,-0.139908,-0.120474,-0.118986,1,1
612,16,-0.603847,0.256866,-0.156875,-0.172177,-0.184821,-0.220493,-0.143736,1,1
619,16,-0.589768,0.183972,-0.233157,-0.138638,-0.204772,-0.215833,-0.258177,1,1
629,16,-0.547946,0.085201,-0.207508,-0.179630,-0.221228,-0.214207,-0.190261,1,1
639,16,-0.603757,0.105997,-0.281249,-0.145081,-0.103483,-0.126257,-0.244434,1,1
607,16,-0.584147,0.211472,-0.182560,-0.193217,-0.109861,-0.165194,-0.258352,1,1
616,16,-0.633592,0.237932,-0.200085,-0.158890,-0.200055,-0.157302,-0.186793,1,1
634,16,-0.544446,0.075016,-0.170813,-0.108054,-0.151762,-0.135196,-0.230505,1,1
602,16,-0.680741,0.226954,-0.172196,-0.145446,-0.165204,-0.255344,-0.196628,1,1
611,16,-0.628088,0.217115,-0.209620,-0.185408,-0.221019,-0.183433,-0.141421,1,1
603,16,-0.606127,0.219079,-0.243553,-0.274218,-0.146013,-0.237108,-0.174602,1,1
621,16,-0.584135,0.077272,-0.287943,-0.132399,-0.283898,-0.153943,-0.145001,1,1
636,16,-0.608046,0.220909,-0.224479,-0.106845,-0.229208,-0.108610,-0.187968,1,1
606,16,-0.659301,0.193615,-0.217626,-0.160184,-0.123385,-0.201521,-0.323155,1,1
624,16,-0.551409,0.177485,-0.205433,-0.235972,-0.181922,-0.183086,-0.223656,1,1
632,16,-0.557499,0.140370,-0.306938,-0.120535,-0.211923,-0.134769,-0.184572,1,1
615,16,-0.637992,0.165947,-0.190866,-0.192358,-0.184658,-0.225472,-0.197831,1,1
620,16,-0.635155,0.128213,-0.259769,-0.233615,-0.142912,-0.115362,-0.197479,1,1
637,16,-0.527504,0.277565,-0.195692,-0.209438,-0.176688,-0.123782,-0.363618,1,1
635,16,-0.598202,0.286575,-0.222410,-0.108653,-0.107325,-0.150104,-0.184030,1,1
617,16,-0.523368,0.226912,-0.241522,-0.150604,-0.117653,-0.191437,-0.214011,1,1
627,16,-0.695725,0.132836,-0.230824,-0.185812,-0.161653,-0.188403,-0.196257,1,1
613,16,-0.553968,0.249123,-0.289664,-0.224677,-0.260894,-0.133157,-0.194799,1,1
608,16,-0.625557,0.159022,-0.244737,-0.121018,-0.100467,-0.174249,-0.173653,1,1
605,16,-0.669304,0.209452,-0.214401,-0.093955,-0.098067,-0.129568,-0.312854,1,1
626,16,-0.526949,0.082006,-0.197870,-0.127000,-0.005390,-0.113899,-0.199005,1,1
628,16,-0.478890,0.199085,-0.192687,-0.175911,-0.196109,-0.223127,-0.185347,1,1
618,16,-0.691018,0.201095,-0.199255,-0.089903,-0.106320,-0.227798,-0.241945,1,1
625,16,-0.633431,0.144470,-0.203453,-0.230247,-0.117188,-0.112655,-0.167973,1,1
630,16,-0.600999,0.216835,-0.220579,-0.193169,-0.197846,-0.208305,-0.124926,1,1
601,16,-0.654507,0.231820,-0.116355,-0.147950,-0.181098,-0.220821,-0.183851,1,1
631,16,-0.630622,0.133330,-0.282568,-0.131196,-0.196562,-0.121153,-0.197470,1,1
609,16,-0.672519,0.118425,-0.227646,-0.162458,-0.226532,-0.213892,-0.291871,1,1
600,16,-0.656787,0.060236,-0.273678,-0.169359,-0.123942,-0.175870,-0.277512,1,1
614,16,-0.536068,0.175513,-0.172286,-0.218517,-0.190953,-0.204376,-0.211783,1,1
664,17,-0.590573,0.205005,-0.195866,-0.205837,-0.145366,-0.098854,-0.228305,1,1
673,17,-0.540097,0.228809,-0.191210,-0.193035,-0.103617,-0.159252,-0.184577,1,1
667,17,-0.508014,0.209308,-0.228043,-0.135741,-0.171930,-0.163648,-0.146623,1,1
642,17,-0.591892,0.184598,-0.047505,-0.195646,-0.086991,-0.190949,-0.159991,1,1
671,17,-0.542024,0.178428,-0.241092,-0.173850,-0.156691,-0.170230,-0.202309,1,1
663,17,-0.704116,0.260929,-0.141352,-0.223867,-0.152174,-0.111811,-0.211704,1,1
648,17,-0.681835,0.174259,-0.248763,-0.126945,-0.233953,-0.123678,-0.205841,1,1
662,17,-0.581658,0.224338,-0.187008,-0.189427,-0.200247,-0.137683,-0.206073,1,1
678,17,-0.567626,0.166862,-0.160826,-0.278031,-0.190870,-0.096645,-0.229221,1,1
657,17,-0.558152,0.192531,-0.278119,-0.174140,-0.216932,-0.178662,-0.200132,1,1
665,17,-0.505907,0.179826,-0.183177,-0.173019,-0.208991,-0.243441,-0.164277,1,1
672,17,-0.458047,0.183924,-0.173797,-0.148739,-0.131175,-0.176813,-0.219893,1,1
641,17,-0.671011,0.115766,-0.192651,-0.308589,-0.121145,-0.215587,-0.238369,1,1
652,17,-0.680943,0.204075,-0.257845,-0.128251,-0.074404,-0.084069,-0.211165,1,1
676,17,-0.527290,0.225191,-0.237493,-0.186132,-0.138704,-0.113222,-0.247702,1,1
669,17,-0.588250,0.145360,-0.183419,-0.090131,-0.155362,-0.177024,-0.153947,1,1
660,17,-0.662781,0.264469,-0.268608,-0.067443,-0.156081,-0.122610,-0.162580,1,1
670,17,-0.512549,0.156716,-0.185720,-0.159822,-0.202451,-0.202029,-0.209757,1,1
666,17,-0.512732,0.216907,-0.191352,-0.168485,-0.069255,-0.153075,-0.141346,1,1
675,17,-0.603331,0.186273,-0.259382,-0.152810,-0.135778,-0.128925,-0.243584,1,1
653,17,-0.607337,0.086760,-0.203846,-0.140426,-0.079010,-0.205914,-0.195937,1,1
661,17,-0.498128,0.108779,-0.239790,-0.188907,-0.134024,-0.132296,-0.251248,1,1
655,17,-0.551486,0.147100,-0.191005,-0.211053,-0.104938,-0.200600,-0.146415,1,1
640,17,-0.603492,0.133254,-0.294201,-0.077485,-0.159626,-0.084544,-0.139030,1,1
677,17,-0.624555,0.127726,-0.229433,-0.125469,-0.137437,-0.131060,-0.252859,1,1
651,17,-0.494348,0.122563,-0.262758,-0.121225,-0.171402,-0.159362,-0.129628,1,1
644,17,-0.629590,0.164407,-0.220304,-0.090007,-0.127057,-0.160510,-0.202217,1,1
650,17,-0.606740,0.139935,-0.203884,-0.153368,-0.128750,-0.177163,-0.104417,1,1
658,17,-0.596301,0.166189,-0.359536,-0.183808,-0.075126,-0.182193,-0.207744,1,1
668,17,-0.582105,0.115752,-0.142695,-0.146119,-0.191068,-0.104801,-0.192679,1,1
646,17,-0.607771,0.178790,-0.294555,-0.245742,-0.089604,-0.144589,-0.287763,1,1
643,17,-0.627222,0.281698,-0.163926,-0.255998,-0.108687,-0.127475,-0.118626,1,1
679,17,-0.514879,0.076367,-0.201887,-0.181509,-0.148803,-0.207475,-0.276284,1,1
674,17,-0.613740,0.172435,-0.255514,-0.176737,-0.178130,-0.217665,-0.178167,1,1
659,17,-0.665038,0.165658,-0.129536,-0.192939,-0.157782,-0.207239,-0.184871,1,1
656,17,-0.622539,0.245325,-0.232204,-0.213297,-0.211264,-0.214481,-0.220949,1,1
649,17,-0.532461,0.144415,-0.136550,-0.197116,-0.105686,-0.207097,-0.184220,1,1
654,17,-0.585521,0.208319,-0.241365,-0.072475,-0.029513,-0.241900,-0.190338,1,1
647,17,-0.575581,0.230645,-0.161717,-0.150656,-0.179886,-0.229541,-0.244771,1,1
645,17,-0.619207,0.225865,-0.218843,-0.207695,-0.186561,-0.128448,-0.129820,1,1
702,18,-0.543256,0.099018,-0.241650,-0.197091,-0.127994,-0.165531,-0.097166,1,1
705,18,-0.494010,0.187458,-0.274787,-0.164079,-0.109912,-0.188673,-0.145027,1,1
710,18,-0.663075,0.146846,-0.184415,-0.166753,-0.130940,-0.155939,-0.170126,1,1
694,18,-0.594699,0.189471,-0.103639,-0.075924,-0.162850,-0.210124,-0.191837,1,1
717,18,-0.575804,0.145148,-0.207455,-0.225254,-0.141077,-0.152246,-0.185352,1,1
716,18,-0.487009,0.081271,-0.142866,-0.079717,-0.102538,-0.202298,-0.239272,1,1
706,18,-0.548344,0.137447,-0.248698,-0.181729,-0.086168,-0.147234,-0.126697,1,1
689,18,-0.561582,0.247799,-0.141423,-0.219287,-0.084113,-0.156511,-0.196015,1,1
704,18,-0.480136,0.257952,-0.274644,-0.100723,-0.168436,-0.192396,-0.210174,1,1
712,18,-0.530990,0.183950,-0.205768,-0.201658,-0.046540,-0.178739,-0.174145,1,1
695,18,-0.642334,0.244213,-0.248524,-0.132911,-0.114373,-0.215676,-0.179900,1,1
718,18,-0.580681,0.228006,-0.110570,-0.222682,-0.144186,-0.211919,-0.129655,1,1
683,18,-0.512932,0.177944,-0.222643,-0.104869,-0.093044,-0.209711,-0.128119,1,1
688,18,-0.558065,0.203094,-0.209953,-0.198623,-0.228223,-0.178510,-0.177962,1,1
697,18,-0.632122,0.183890,-0.139421,-0.151087,-0.168879,-0.148401,-0.155862,1,1
714,18,-0.522755,0.161737,-0.172929,-0.230073,-0.137203,-0.107952,-0.161526,1,1
684,18,-0.589247,0.254946,-0.133478,-0.222970,-0.179983,-0.225909,-0.217914,1,1
707,18,-0.523188,0.250890,-0.182032,-0.188998,-0.180791,-0.163240,-0.220326,1,1
701,18,-0.450226,0.205621,-0.089967,-0.206976,-0.090064,-0.147345,-0.155575,1,1
681,18,-0.533700,0.179623,-0.208022,-0.060722,-0.102152,-0.185628,-0.206671,1,1
708,18,-0.583427,0.192982,-0.144299,-0.210068,-0.215860,-0.147324,-0.197785,1,1
690,18,-0.599360,0.229848,-0.183065,-0.165510,-0.194452,-0.108461,-0.174118,1,1
699,18,-0.598435,0.213151,-0.187508,-0.162002,-0.220806,-0.113018,-0.198266,1,1
719,18,-0.577338,0.142715,-0.137126,-0.205108,-0.094592,-0.212041,-0.255564,1,1
715,18,-0.598820,0.107055,-0.074439,-0.126482,-0.126796,-0.199161,-0.149648,1,1
703,18,-0.467618,0.228748,-0.199133,-0.039967,-0.152666,-0.148708,-0.171999,1,1
691,18,-0.535237,0.103703,-0.107597,-0.173529,-0.168331,-0.182478,-0.156037,1,1
700,18,-0.649145,0.185339,-0.146919,-0.193505,-0.110784,-0.230274,-0.201380,1,1
713,18,-0.549907,0.136603,-0.136545,-0.193325,-0.101652,-0.182616,-0.120682,1,1
711,18,-0.569868,0.114868,-0.258693,-0.048317,-0.166726,-0.206844,-0.229089,1,1
696,18,-0.561939,0.178119,-0.130125,-0.072854,-0.182759,-0.115901,-0.132429,1,1
709,18,-0.588339,0.136877,-0.163551,-0.116793,-0.179138,-0.213495,-0.174151,1,1
685,18,-0.565384,0.185453,-0.254819,-0.144366,-0.116018,-0.198298,-0.236491,1,1
698,18,-0.558009,0.214100,-0.147450,-0.212512,-0.050328,-0.222007,-0.225305,1,1
693,18,-0.534185,0.206533,-0.242339,-0.126928,-0.096813,-0.083220,-0.173200,1,1
682,18,-0.598099,0.271816,-0.208178,-0.216448,-0.182380,-0.187023,-0.209063,1,1
692,18,-0.582080,0.126776,-0.144003,-0.105841,-0.085246,-0.113951,-0.217941,1,1
680,18,-0.547778,0.200802,-0.135971,-0.050386,-0.154317,-0.172169,-0.135546,1,1
686,18,-0.536122,0.175969,-0.127619,-0.175189,-0.102045,-0.156020,-0.181626,1,1
687,18,-0.582318,0.174158,-0.219468,-0.218722,-0.136950,-0.217113,-0.294071,1,1
745,19,-0.492200,0.201250,-0.178510,-0.188421,-0.115906,-0.168578,-0.104225,1,1
747,19,-0.507639,0.200022,-0.112320,-0.109053,-0.177352,-0.125860,-0.261004,1,1
723,19,-0.633249,0.216918,-0.189661,-0.191539,-0.085863,-0.082032,-0.189700,1,1
759,19,-0.556015,0.168155,-0.266225,-0.177627,-0.148228,-0.214130,-0.117735,1,1
749,19,-0.551123,0.130515,-0.192824,-0.061517,-0.092341,-0.173638,-0.234833,1,1
748,19,-0.459188,0.209512,-0.270641,-0.150464,-0.136567,-0.235562,-0.143908,1,1
740,19,-0.579718,0.187507,-0.183438,-0.123138,-0.201546,-0.202732,-0.128460,1,1
725,19,-0.532830,0.144055,-0.202410,-0.090765,-0.132165,-0.174510,-0.171931,1,1
756,19,-0.474669,0.156884,-0.159109,-0.144353,-0.173661,-0.198311,-0.107175,1,1
738,19,-0.611896,0.185450,-0.197375,-0.180935,-0.101570,-0.169786,-0.130823,1,1
731,19,-0.549850,0.171198,-0.245161,-0.134579,-0.137974,-0.125547,-0.177947,1,1
758,19,-0.561645,0.151752,-0.172661,-0.132603,-0.104690,-0.114624,-0.179877,1,1
734,19,-0.548514,0.183062,-0.183501,-0.199321,-0.135896,-0.155809,-0.148275,1,1
733,19,-0.553008,0.145292,-0.191692,-0.180270,-0.193199,-0.225516,-0.235036,1,1
753,19,-0.542901,0.133231,-0.164333,-0.093935,-0.109438,-0.190331,-0.183686,1,1
742,19,-0.602079,0.206944,-0.188586,-0.128713,0.015997,-0.237498,-0.169689,1,1
739,19,-0.589530,0.125730,-0.257182,-0.179742,-0.079058,-0.107737,-0.102301,1,1
721,19,-0.589836,0.207814,-0.189298,-0.126947,-0.195779,-0.012276,-0.100817,1,1
724,19,-0.518404,0.149710,-0.161576,-0.134998,-0.113608,-0.150802,-0.140651,1,1
722,19,-0.638790,0.203459,-0.220977,-0.086700,-0.051174,-0.087141,-0.191623,1,1
757,19,-0.508079,0.171296,-0.055412,-0.111586,-0.061344,-0.164171,-0.183287,1,1
720,19,-0.581925,0.199085,-0.163757,-0.225607,-0.102718,-0.130328,-0.174033,1,1
754,19,-0.569186,0.147610,-0.164959,-0.177952,-0.143219,-0.127894,-0.168515,1,1
732,19,-0.485834,0.274742,-0.207541,-0.149436,-0.080585,-0.126062,-0.204400,1,1
737,19,-0.539525,0.182110,-0.195726,-0.184765,-0.123338,-0.197962,-0.168626,1,1
743,19,-0.578696,0.216687,-0.080528,-0.111190,-0.148433,-0.186400,-0.090908,1,1
755,19,-0.475314,0.312966,-0.154119,-0.062565,-0.148809,-0.068226,-0.156339,1,1
736,19,-0.560165,0.120635,-0.235921,-0.194435,-0.183947,-0.249429,-0.105030,1,1
744,19,-0.485132,0.286061,-0.188455,-0.131836,-0.094220,-0.227971,-0.259904,1,1
726,19,-0.578467,0.232365,-0.254913,-0.133909,-0.126770,-0.265618,-0.197798,1,1
746,19,-0.525344,0.237320,-0.030044,-0.124193,-0.138432,-0.178022,-0.091667,1,1
727,19,-0.513785,0.299595,-0.175816,-0.174149,-0.127768,-0.086497,-0.265269,1,1
730,19,-0.514588,0.160986,-0.194867,-0.152366,-0.104904,-0.121667,-0.124267,1,1
729,19,-0.649730,0.200810,-0.184036,-0.165328,-0.097851,-0.175224,-0.035916,1,1
750,19,-0.645961,0.258421,-0.277276,-0.163563,-0.111977,-0.085886,-0.145094,1,1
728,19,-0.588922,0.095395,-0.186225,-0.073675,0.048890,-0.152442,-0.189560,1,1
752,19,-0.512321,0.196244,-0.192136,-0.141879,-0.076650,-0.087098,-0.171482,1,1
741,19,-0.516004,0.195463,-0.243749,-0.172371,-0.137226,-0.136034,-0.184031,1,1
735,19,-0.456555,0.128085,-0.144488,-0.131949,-0.065351,-0.175099,-0.102169,1,1
751,19,-0.548325,0.152692,-0.191179,-0.137576,-0.122342,-0.174388,-0.171939,1,1
768,20,-0.451059,0.139275,-0.161630,-0.195456,-0.131510,-0.199235,-0.196263,1,1
793,20,-0.478986,0.200943,-0.202704,-0.070884,-0.113565,-0.221037,-0.168798,1,1
765,20,-0.525257,0.175343,-0.184905,-0.134503,-0.120550,-0.255114,-0.205813,1,1
760,20,-0.658869,0.266486,-0.159500,-0.176527,-0.110089,-0.156511,-0.197193,1,0
781,20,-0.441819,0.193982,-0.235565,-0.118877,-0.136913,-0.181184,-0.193817,1,1
789,20,-0.422900,0.188237,-0.245831,-0.137805,-0.130241,-0.133070,-0.245607,1,1
788,20,-0.557164,0.209377,-0.185077,-0.188846,-0.110383,-0.128684,-0.200024,1,1
766,20,-0.595015,0.207818,-0.210737,-0.143795,0.000139,-0.155918,-0.084589,1,1
776,20,-0.509081,0.124176,-0.214927,-0.183187,-0.069539,-0.083579,-0.149064,1,1
790,20,-0.444470,0.228322,-0.129356,-0.194066,-0.150783,-0.151959,-0.180720,1,1
787,20,-0.403837,0.153936,-0.132744,-0.120974,-0.131882,-0.287566,-0.085277,1,1
777,20,-0.505604,0.254653,-0.178894,-0.149700,-0.091968,-0.157072,-0.097023,1,1
797,20,-0.410674,0.202663,-0.216410,-0.100226,-0.156918,-0.104989,-0.083168,1,1
783,20,-0.563364,0.223950,-0.233206,-0.082389,-0.091408,-0.159519,-0.168170,1,1
785,20,-0.438429,0.194163,-0.138109,0.008204,-0.155071,-0.079609,-0.142903,1,1
774,20,-0.435272,0.213900,-0.209354,-0.213971,-0.127310,-0.157083,-0.145144,1,1
782,20,-0.448437,0.174956,-0.192518,-0.202283,-0.107969,-0.147960,-0.183969,1,1
780,20,-0.521439,0.232867,-0.124325,-0.233719,-0.083761,-0.185728,-0.095471,1,1
791,20,-0.548254,0.235232,-0.252436,-0.091904,-0.159934,-0.129917,-0.162809,1,1
767,20,-0.511360,0.243852,-0.229288,-0.051046,-0.041666,-0.120821,-0.189570,1,1
795,20,-0.558439,0.183361,-0.157723,-0.035616,-0.181467,-0.137186,-0.223186,1,1
764,20,-0.532152,0.202100,-0.231195,-0.088494,-0.155187,-0.059402,-0.214359,1,1
770,20,-0.466449,0.141252,-0.205309,-0.081889,-0.098642,-0.214194,-0.122751,1,1
763,20,-0.513513,0.157230,-0.113440,-0.156434,-0.140675,-0.126621,-0.133023,1,1
792,20,-0.454588,0.129580,-0.137507,-0.056292,-0.094575,-0.138464,-0.179132,1,1
769,20,-0.555077,0.248236,-0.200916,-0.101258,-0.178596,-0.204453,-0.157517,1,1
778,20,-0.542679,0.154701,-0.225390,-0.143969,-0.168459,-0.113550,-0.189677,1,1
762,20,-0.562455,0.291675,-0.220150,-0.151551,-0.188360,-0.194219,-0.172472,1,1
779,20,-0.545174,0.224522,-0.127794,-0.110074,-0.155237,-0.153980,-0.178747,1,1
796,20,-0.520008,0.165162,-0.314769,-0.152136,-0.113359,-0.156117,-0.215386,1,1
794,20,-0.453422,0.171602,-0.148095,-0.148884,-0.078151,-0.088281,-0.094598,1,1
786,20,-0.518427,0.167379,-0.130562,-0.151272,-0.155493,-0.126568,-0.260526,1,1
772,20,-0.614590,0.263995,-0.130951,-0.111483,-0.141824,-0.120968,-0.246673,1,1
799,20,-0.465545,0.184523,-0.162210,-0.171326,-0.142292,-0.072862,-0.177967,1,1
771,20,-0.456409,0.208743,-0.208017,-0.131809,-0.174567,-0.075597,-0.208131,1,1
784,20,-0.472498,0.250503,-0.202155,-0.089697,-0.185618,-0.087114,-0.178359,1,1
775,20,-0.522197,0.243894,-0.182534,-0.186733,-0.173051,-0.173034,-0.247715,1,1
761,20,-0.622969,0.219022,-0.143193,-0.090811,-0.024133,-0.160402,-0.218662,1,1
773,20,-0.521816,0.281358,-0.071780,-0.131977,-0.107559,-0.046536,-0.189369,1,1
798,20,-0.502113,0.224241,-0.119699,-0.153186,-0.142034,-0.142792,-0.163323,1,1