@relation stream_gen

@attribute global_id NUMERIC
@attribute timestamp NUMERIC
@attribute f1 NUMERIC
@attribute f2 NUMERIC
@attribute f3 NUMERIC
@attribute f4 NUMERIC
@attribute class_0 {0,1}
@attribute class_1 {0,1}
@attribute class_2 {0,1}

@data
9,1,-0.564808,0.015885,-0.070880,0.136574,1,1,0
37,1,-0.595864,0.012087,-0.034200,0.042857,1,1,0
19,1,-0.726375,-0.053894,-0.092949,0.034720,1,1,0
8,1,-0.645158,0.017971,-0.101103,-0.002154,1,1,0
38,1,-0.653246,-0.035503,-0.014105,0.153203,1,1,0
23,1,-0.625357,-0.061901,-0.108199,0.025404,1,1,0
18,1,-0.628881,0.017554,-0.080391,0.056599,1,1,0
12,1,-0.574163,-0.076906,-0.064990,0.047039,1,1,0
15,1,-0.624277,-0.050815,0.011930,0.052692,1,1,0
14,1,-0.518159,0.001510,-0.034818,0.003733,1,1,0
32,1,-0.558307,-0.060590,0.018207,0.065585,1,1,0
39,1,-0.644902,-0.039885,-0.077797,0.088565,1,1,0
24,1,-0.606998,-0.058993,-0.153628,0.190097,1,1,0
7,1,-0.555942,0.046208,-0.079071,0.012959,1,1,0
3,1,-0.627467,0.002657,-0.093617,0.080782,1,1,0
26,1,-0.629579,0.036260,-0.055613,0.099145,1,1,0
25,1,-0.619855,0.011795,-0.193835,0.032872,1,1,0
27,1,-0.641481,-0.105393,-0.083911,0.058200,1,1,0
35,1,-0.548225,-0.021815,-0.151273,0.155730,1,1,0
0,1,-0.569149,0.036384,-0.028085,0.065609,1,1,0
11,1,-0.581432,-0.047521,-0.002363,0.123922,1,1,0
6,1,-0.577319,-0.011328,-0.164613,0.084408,1,1,0
5,1,-0.545457,-0.055999,0.036333,0.019761,1,1,0
4,1,-0.546457,-0.066680,-0.013347,0.130360,1,1,0
1,1,-0.604407,0.031668,-0.015919,0.055710,1,1,0
13,1,-0.523497,0.050784,-0.068385,0.087214,1,1,0
20,1,-0.550405,-0.040036,-0.035432,0.051886,1,1,0
16,1,-0.540430,0.062641,-0.048166,0.060251,1,1,0
10,1,-0.547909,0.008900,-0.073284,-0.010024,1,1,0
31,1,-0.612412,0.001076,-0.090997,0.078650,1,1,0
29,1,-0.597129,-0.048634,-0.160945,0.143542,1,1,0
17,1,-0.574589,0.022204,0.022639,0.058320,1,1,0
36,1,-0.579481,-0.086369,-0.080091,0.019771,1,1,0
30,1,-0.665764,-0.159910,-0.113578,0.123115,0,1,0
28,1,-0.617785,-0.030080,-0.104171,0.129498,1,1,0
21,1,-0.586329,-0.065908,-0.125719,0.060331,1,1,0
2,1,-0.613871,0.039455,-0.016558,0.009433,1,1,0
22,1,-0.596151,-0.025345,-0.080517,0.136373,1,1,0
33,1,-0.555528,-0.035724,-0.158371,0.096943,1,1,0
34,1,-0.526042,-0.009484,-0.081960,0.075437,1,1,0
42,2,-0.503916,0.107294,-0.077043,-0.058166,1,0,0
54,2,-0.481155,-0.061916,-0.018208,0.054880,1,1,0
50,2,-0.559494,0.091853,-0.015940,0.130883,1,1,0
41,2,-0.638307,0.007880,-0.027762,0.067702,1,1,0
53,2,-0.594439,0.057098,0.003756,0.019439,1,1,0
76,2,-0.603210,-0.090971,-0.093085,0.146759,1,1,0
57,2,-0.611431,0.044784,-0.045969,0.105077,1,1,0
68,2,-0.537519,-0.092322,-0.061231,0.125095,1,1,0
66,2,-0.631875,0.029486,-0.072611,0.116229,1,1,0
44,2,-0.522585,-0.023287,-0.030942,0.063273,1,1,0
40,2,-0.522288,0.072173,0.018441,0.042900,1,1,0
78,2,-0.541598,-0.075047,-0.054522,0.152994,1,1,0
62,2,-0.576020,-0.017689,-0.148748,0.113173,1,1,0
65,2,-0.577032,-0.040650,-0.034507,0.047489,1,1,0
70,2,-0.577044,-0.068816,-0.049386,0.053931,1,1,0
74,2,-0.642164,-0.007521,-0.099064,0.084171,1,1,0
49,2,-0.576916,-0.055949,-0.052330,0.083659,1,1,0
51,2,-0.541564,0.028001,-0.022203,0.104508,1,1,0
75,2,-0.578543,-0.023589,-0.064628,0.041874,1,1,0
67,2,-0.506886,-0.056750,-0.029026,0.090786,1,1,0
47,2,-0.608783,0.011058,-0.062577,-0.078038,1,1,0
60,2,-0.544348,-0.044218,-0.091762,0.030957,1,1,0
73,2,-0.609964,0.018709,-0.096448,0.006962,1,1,0
43,2,-0.580553,0.052265,-0.059595,0.074369,1,1,0
48,2,-0.690435,-0.070691,-0.037412,0.028967,1,1,0
77,2,-0.499844,-0.052993,-0.031650,0.074177,1,1,0
46,2,-0.558579,0.009075,-0.089912,0.024415,1,1,0
69,2,-0.547027,0.017232,-0.021134,0.113457,1,1,0
71,2,-0.639304,-0.011851,-0.102495,0.111809,1,1,0
45,2,-0.666771,0.014841,-0.059305,0.086083,1,1,0
72,2,-0.640955,-0.109309,-0.123126,0.116764,1,1,0
79,2,-0.632394,-0.007826,-0.105838,0.155179,1,1,0
59,2,-0.612976,-0.015310,-0.014695,0.085216,1,1,0
63,2,-0.532240,-0.003812,-0.056192,0.054663,1,1,0
58,2,-0.598125,0.078494,-0.100797,0.109927,1,1,0
52,2,-0.558268,0.031292,-0.058803,0.083189,1,1,0
61,2,-0.545457,-0.069867,-0.058849,0.065406,1,1,0
64,2,-0.628672,0.008856,-0.117141,0.102907,1,1,0
55,2,-0.628705,-0.011527,-0.031779,0.138866,1,1,0
56,2,-0.632755,-0.055322,0.005309,0.093795,1,1,0
98,3,-0.538943,0.016420,-0.017059,0.027226,1,1,0
93,3,-0.570494,0.004684,-0.032640,0.072171,1,1,0
90,3,-0.580633,0.059320,-0.144311,0.014066,1,1,0
91,3,-0.636841,0.127856,0.037473,0.073256,1,0,0
106,3,-0.665394,-0.016483,-0.079889,0.000749,1,1,0
82,3,-0.578017,-0.029750,-0.064553,0.095331,1,1,0
114,3,-0.666219,-0.044352,-0.131957,0.105378,1,1,0
80,3,-0.532556,0.013609,-0.055537,0.062030,1,1,0
115,3,-0.633332,-0.052758,-0.100253,0.182811,1,1,0
103,3,-0.593227,-0.128546,-0.077071,0.129540,1,1,0
116,3,-0.666304,-0.020479,-0.086068,0.158043,1,1,0
102,3,-0.529502,0.008918,-0.125411,0.178917,1,1,0
101,3,-0.625017,-0.008549,-0.086905,0.085369,1,1,0
104,3,-0.693284,-0.137772,0.041263,0.114666,0,1,0
94,3,-0.571588,0.046098,-0.075994,0.039963,1,1,0
84,3,-0.602887,-0.020758,-0.152672,0.109209,1,1,0
83,3,-0.577302,0.051638,0.061651,0.135931,1,1,0
88,3,-0.676419,0.008423,0.002797,0.114773,1,1,0
107,3,-0.678192,-0.052040,-0.170248,0.143248,1,1,0
117,3,-0.589778,0.025242,-0.130132,0.095372,1,1,0
118,3,-0.578078,-0.054768,-0.123551,0.168514,1,1,0
100,3,-0.565254,-0.081529,-0.101802,0.182062,1,1,0
85,3,-0.593229,0.064341,-0.121886,0.077978,1,1,0
111,3,-0.609541,-0.140092,-0.111707,0.075332,1,1,0
86,3,-0.625138,0.009072,-0.057127,0.044879,1,1,0
112,3,-0.639475,0.019087,-0.162351,0.129895,1,1,0
81,3,-0.586441,0.136828,-0.004312,0.072125,1,0,0
95,3,-0.615085,0.017481,0.043157,0.084337,1,1,0
92,3,-0.641438,-0.074343,-0.024309,0.018301,1,1,0
119,3,-0.697657,-0.091325,-0.093133,0.034848,1,1,0
96,3,-0.525069,0.039018,-0.083604,0.132544,1,1,0
108,3,-0.629129,-0.052620,-0.105015,0.116205,1,1,0
109,3,-0.559629,-0.060065,-0.004530,0.127016,1,1,0
113,3,-0.602945,0.017360,-0.113102,-0.010629,1,1,0
87,3,-0.570771,-0.035652,-0.055257,0.027401,1,1,0
110,3,-0.620096,-0.002975,-0.133028,0.025553,1,1,0
89,3,-0.622303,0.031113,-0.055067,0.081606,1,1,0
105,3,-0.577548,-0.031958,-0.099576,0.110404,1,1,0
99,3,-0.612480,0.072737,-0.066340,0.018562,1,1,0
97,3,-0.579087,0.009314,-0.098721,0.050908,1,1,0
122,4,-0.564992,0.049016,-0.071518,0.080426,1,1,0
144,4,-0.631488,-0.092768,-0.074552,0.142589,1,1,0
149,4,-0.563412,0.046435,-0.075102,0.073860,1,1,0
128,4,-0.619233,0.014050,-0.008935,0.103376,1,1,0
155,4,-0.655035,0.088720,-0.174437,0.126819,1,1,0
133,4,-0.647646,0.066111,-0.016158,0.083268,1,1,0
156,4,-0.663548,-0.091357,-0.028143,0.105971,1,1,0
146,4,-0.581114,-0.020779,-0.043319,0.078829,1,1,0
121,4,-0.524317,0.006187,-0.046767,0.047610,1,1,0
143,4,-0.590197,-0.002471,-0.103192,0.050271,1,1,0
139,4,-0.562624,0.025686,-0.013831,0.090566,1,1,0
138,4,-0.604198,-0.000822,0.039831,0.075631,1,1,0
148,4,-0.596721,-0.007180,-0.134658,0.114370,1,1,0
124,4,-0.608968,0.073400,-0.017846,0.047778,1,1,0
154,4,-0.612970,-0.055645,-0.128816,0.109364,1,1,0
157,4,-0.679837,-0.101207,-0.102671,0.127979,1,1,0
127,4,-0.660533,-0.012052,-0.067245,0.025353,1,1,0
120,4,-0.510381,0.023444,-0.097312,0.085212,1,1,0
129,4,-0.597110,-0.071540,0.032186,0.006833,1,1,0
150,4,-0.618462,-0.015521,-0.045805,0.073360,1,1,0
141,4,-0.607360,-0.133724,-0.063806,0.054000,1,1,0
147,4,-0.589728,0.001558,-0.077241,0.048887,1,1,0
158,4,-0.613791,-0.034997,-0.152027,0.160770,1,1,0
136,4,-0.556674,-0.031105,-0.051052,0.039518,1,1,0
130,4,-0.657802,0.022051,0.025260,0.112603,1,1,0
151,4,-0.599773,-0.084912,-0.109518,0.146548,1,1,0
153,4,-0.733095,-0.011916,-0.177137,0.020765,1,1,0
135,4,-0.647705,-0.001409,-0.070992,0.077580,1,1,0
152,4,-0.665747,-0.098982,-0.152847,0.153532,1,1,0
137,4,-0.635933,0.017666,-0.025193,0.043163,1,1,0
132,4,-0.545456,0.003871,-0.061939,0.104995,1,1,0
159,4,-0.623549,-0.012059,-0.151592,-0.009720,1,1,0
142,4,-0.676827,0.016539,-0.080934,0.006252,1,1,0
126,4,-0.579078,-0.023822,-0.033138,0.145506,1,1,0
140,4,-0.590598,-0.126845,-0.113892,0.100862,1,1,0
123,4,-0.578821,-0.047093,-0.009608,0.107733,1,1,0
131,4,-0.659134,-0.014287,-0.049248,0.092657,1,1,0
145,4,-0.578787,-0.079664,-0.100551,0.038514,1,1,0
134,4,-0.535122,-0.061944,-0.086391,0.017083,1,1,0
125,4,-0.642724,0.007814,-0.137133,0.018466,1,1,0
183,5,-0.613522,0.031897,-0.050456,0.059303,1,1,0
169,5,-0.603874,-0.014514,-0.002719,0.138216,1,1,0
199,5,-0.673799,0.006606,-0.109424,0.053620,1,1,0
168,5,-0.560933,-0.038422,-0.019472,0.050624,1,1,0
195,5,-0.563852,0.027797,-0.083532,0.051773,1,1,0
189,5,-0.617660,-0.025675,-0.187326,0.095478,1,1,0
182,5,-0.712391,-0.086507,-0.139342,0.187624,1,1,0
170,5,-0.606271,0.029071,-0.065428,-0.001146,1,1,0
177,5,-0.622346,-0.018124,-0.023149,0.049507,1,1,0
188,5,-0.649567,-0.046071,-0.201953,0.026359,1,1,0
172,5,-0.620709,0.077144,0.039091,0.023984,1,1,0
175,5,-0.567831,-0.006900,-0.051707,-0.004211,1,1,0
161,5,-0.626207,-0.122236,0.081695,0.050542,1,1,0
196,5,-0.576839,0.032506,-0.037524,0.035100,1,1,0
162,5,-0.527691,-0.003559,-0.140806,0.147962,1,1,0
180,5,-0.514202,0.059868,-0.129702,0.142213,1,1,0
179,5,-0.656608,0.032640,0.008422,0.027740,1,1,0
197,5,-0.657868,-0.019913,-0.037190,0.086377,1,1,0
165,5,-0.605779,0.006451,-0.096613,0.026132,1,1,0
184,5,-0.546300,0.021670,-0.174494,0.136494,1,1,0
166,5,-0.618076,0.018880,-0.048313,0.056537,1,1,0
187,5,-0.633649,0.005883,-0.102613,0.074369,1,1,0
192,5,-0.547088,-0.043532,-0.181505,0.053835,1,1,0
186,5,-0.678237,-0.070666,-0.139170,0.041094,1,1,0
190,5,-0.630320,-0.017881,-0.080116,0.053157,1,1,0
173,5,-0.553678,-0.026011,-0.120131,0.101323,1,1,0
163,5,-0.624428,0.060887,-0.110617,0.048875,1,1,0
164,5,-0.681611,-0.067067,-0.015728,0.173391,1,1,0
178,5,-0.604284,0.079748,0.029105,0.062893,1,1,0
181,5,-0.611453,-0.069590,-0.076700,0.057601,1,1,0
160,5,-0.663292,-0.067255,-0.021734,0.017760,1,1,0
171,5,-0.518649,-0.018225,-0.042790,-0.052095,1,1,0
167,5,-0.601470,0.014806,-0.029090,0.133228,1,1,0
191,5,-0.577662,0.003485,-0.086546,0.071004,1,1,0
194,5,-0.546372,-0.156890,-0.150350,0.155549,0,1,0
174,5,-0.604270,0.001236,0.012133,0.074714,1,1,0
198,5,-0.624644,-0.045979,-0.113261,0.044087,1,1,0
176,5,-0.611152,0.174028,-0.062415,0.085489,1,0,0
185,5,-0.584355,-0.046437,-0.118568,0.030890,1,1,0
193,5,-0.639712,0.016299,-0.103514,0.125015,1,1,0
202,6,-0.645460,-0.018442,-0.020674,0.069856,1,1,0
229,6,-0.615462,-0.051790,-0.104741,0.084884,1,1,0
206,6,-0.634866,-0.000608,0.005500,0.089141,1,1,0
232,6,-0.648563,-0.072404,-0.063680,0.155308,1,1,0
228,6,-0.653541,-0.033071,-0.059443,0.123520,1,1,0
239,6,-0.562413,0.000423,-0.038444,0.081175,1,1,0
235,6,-0.602527,0.016503,-0.083051,0.148704,1,1,0
208,6,-0.584410,-0.016346,-0.006173,0.091842,1,1,0
203,6,-0.631922,-0.079533,-0.070954,0.042544,1,1,0
207,6,-0.524851,0.006469,-0.103341,0.011422,1,1,0
213,6,-0.586131,0.033639,0.011115,0.108893,1,1,0
200,6,-0.580364,0.056068,-0.063598,0.027197,1,1,0
216,6,-0.613120,0.096819,-0.010486,0.064699,1,1,0
222,6,-0.592183,-0.095734,-0.085823,0.166483,1,1,0
231,6,-0.542094,0.028954,-0.124061,0.030357,1,1,0
234,6,-0.626579,-0.127143,-0.116006,0.088613,1,1,0
220,6,-0.530670,0.063939,-0.021156,-0.009252,1,1,0
233,6,-0.630558,-0.058402,-0.086455,0.081570,1,1,0
204,6,-0.679479,-0.052915,-0.025262,0.062811,1,1,0
237,6,-0.629752,-0.016583,-0.090989,0.095268,1,1,0
225,6,-0.646829,-0.150768,-0.088409,0.111036,0,1,0
223,6,-0.661464,-0.058726,-0.055035,0.104605,1,1,0
219,6,-0.539647,-0.001736,-0.063310,0.039231,1,1,0
218,6,-0.558660,0.034543,-0.040202,0.071729,1,1,0
214,6,-0.636177,-0.096449,-0.085200,0.158752,1,1,0
201,6,-0.580893,0.055215,-0.020812,0.089985,1,1,0
224,6,-0.667680,-0.040600,-0.065100,-0.029760,1,1,0
236,6,-0.548598,-0.118844,-0.076525,0.000186,1,1,0
212,6,-0.574185,0.052859,-0.003136,0.137817,1,1,0
221,6,-0.586120,0.006548,-0.053013,0.005839,1,1,0
215,6,-0.564702,-0.062417,0.042480,0.138266,1,1,0
226,6,-0.647834,-0.034538,-0.149562,0.086031,1,1,0
227,6,-0.614908,-0.078660,-0.194698,0.100459,1,1,0
210,6,-0.679863,0.065147,-0.066830,0.024626,1,1,0
217,6,-0.633884,0.091888,-0.072829,0.081185,1,1,0
211,6,-0.443344,-0.008002,0.030280,0.125422,1,0,0
230,6,-0.638464,-0.108903,-0.004113,0.114612,1,1,0
205,6,-0.597915,0.050580,-0.032024,0.057115,1,1,0
209,6,-0.564887,-0.031184,-0.025424,0.085255,1,1,0
238,6,-0.597762,-0.097892,-0.164870,0.098351,1,1,0
276,7,-0.644399,0.010575,-0.136022,0.034652,1,1,0
266,7,-0.630892,0.031640,-0.080815,0.118164,1,1,0
257,7,-0.575747,-0.052040,-0.054836,0.059073,1,1,0
263,7,-0.596814,-0.016233,-0.100456,-0.008731,1,1,0
244,7,-0.629117,0.054186,-0.098089,0.038246,1,1,0
267,7,-0.645868,0.009157,-0.075025,0.093190,1,1,0
260,7,-0.580317,-0.112574,-0.148267,0.111654,1,1,0
279,7,-0.667454,-0.038723,-0.112530,0.109879,1,1,0
271,7,-0.565696,-0.049550,-0.104516,0.108191,1,1,0
249,7,-0.559486,-0.014839,-0.107262,-0.021022,1,1,0
273,7,-0.659601,-0.072170,-0.052095,0.041100,1,1,0
277,7,-0.645343,0.086588,-0.083783,0.051314,1,1,0
264,7,-0.637529,-0.119337,-0.060412,0.119741,1,1,0
240,7,-0.646419,0.043917,-0.011734,0.112408,1,1,0
278,7,-0.606189,-0.077272,-0.090611,0.112155,1,1,0
255,7,-0.586829,0.041142,-0.110941,0.072205,1,1,0
256,7,-0.539903,-0.011494,-0.066124,0.027831,1,1,0
246,7,-0.638010,-0.007801,-0.062811,0.030978,1,1,0
262,7,-0.710325,-0.069063,-0.061869,0.030546,1,1,0
275,7,-0.584030,-0.057090,-0.031579,0.128033,1,1,0
261,7,-0.573078,-0.027249,-0.094756,0.081095,1,1,0
247,7,-0.564633,-0.028154,-0.053416,0.157565,1,1,0
243,7,-0.587285,0.009838,-0.004360,0.141637,1,1,0
258,7,-0.516857,-0.073422,-0.111990,0.147049,1,1,0
250,7,-0.590694,-0.017867,0.035067,-0.003709,1,1,0
242,7,-0.519729,0.042207,-0.023693,0.056436,1,1,0
245,7,-0.623043,0.059798,-0.061879,0.017976,1,1,0
268,7,-0.642481,-0.062227,-0.078873,0.119313,1,1,0
252,7,-0.588392,0.050027,-0.043274,0.024176,1,1,0
241,7,-0.584076,0.017926,-0.097710,-0.010386,1,1,0
253,7,-0.606420,0.038984,-0.086374,0.123120,1,1,0
274,7,-0.603975,-0.052722,-0.153352,0.006992,1,1,0
248,7,-0.611494,0.025360,0.005387,0.127112,1,1,0
270,7,-0.586162,-0.131505,-0.171749,0.054572,1,1,0
272,7,-0.579275,-0.018287,-0.093505,0.125631,1,1,0
254,7,-0.624978,-0.060129,-0.057730,0.038871,1,1,0
265,7,-0.629556,-0.180356,-0.120178,0.143508,0,1,0
269,7,-0.621628,-0.049581,-0.116239,0.070785,1,1,0
259,7,-0.636685,-0.028965,-0.067848,0.081458,1,1,0
251,7,-0.615893,-0.034720,-0.006519,0.130037,1,1,0
286,8,-0.545331,-0.011453,-0.024039,0.127782,1,1,0
307,8,-0.598769,-0.079910,-0.034288,0.105694,1,1,0
298,8,-0.626944,-0.070818,-0.028143,0.083305,1,1,0
314,8,-0.623863,-0.017400,-0.112645,0.063737,1,1,0
296,8,-0.520283,0.034367,-0.020642,0.017325,1,1,0
300,8,-0.506445,-0.066069,-0.074623,0.094107,1,1,0
284,8,-0.573520,-0.013203,-0.034679,0.074898,1,1,0
301,8,-0.562568,-0.015398,-0.084350,0.064783,1,1,0
289,8,-0.564638,0.011270,-0.005265,0.161384,1,1,0
316,8,-0.641044,-0.017410,-0.058618,0.095822,1,1,0
281,8,-0.541397,0.045410,0.089614,0.066371,1,1,0
295,8,-0.534423,0.089767,-0.137858,0.049234,1,0,0
306,8,-0.663322,-0.033362,-0.133268,0.128368,1,1,0
297,8,-0.595544,0.003385,-0.041599,0.002041,1,1,0
299,8,-0.646341,0.008095,-0.001153,0.045926,1,1,0
291,8,-0.565358,0.065751,-0.006414,0.097168,1,1,0
282,8,-0.658359,-0.023582,-0.062381,0.163633,1,1,0
285,8,-0.657975,0.057842,-0.034170,-0.004713,1,1,0
311,8,-0.642431,-0.007104,-0.188520,0.069417,1,1,0
304,8,-0.632084,-0.039757,-0.083814,-0.062494,1,1,0
313,8,-0.647505,0.004038,-0.180375,0.171256,1,1,0
305,8,-0.520288,-0.055279,-0.147032,-0.012903,1,1,0
315,8,-0.601305,-0.094969,-0.126281,0.143294,1,1,0
319,8,-0.543466,-0.027612,-0.094140,0.102329,1,1,0
310,8,-0.503141,-0.003896,-0.182216,0.128247,1,1,0
283,8,-0.609018,-0.020576,-0.146405,0.052364,1,1,0
288,8,-0.570328,-0.017404,-0.018238,0.063120,1,1,0
302,8,-0.628093,-0.038382,-0.094151,0.110285,1,1,0
293,8,-0.583954,0.004715,-0.010130,0.135107,1,1,0
280,8,-0.500403,0.038263,-0.036841,0.080638,1,1,0
294,8,-0.578660,-0.057452,-0.131539,0.033813,1,1,0
303,8,-0.563323,-0.073049,-0.008805,0.076705,1,1,0
318,8,-0.533530,-0.100934,-0.039827,0.149339,1,1,0
309,8,-0.689177,0.057066,-0.087325,0.204598,1,1,0
290,8,-0.682048,0.020234,-0.036812,0.061789,1,1,0
317,8,-0.631915,-0.111515,-0.106925,0.088998,1,1,0
312,8,-0.637863,-0.070601,-0.113486,0.205404,1,1,0
308,8,-0.527147,0.022381,-0.122130,0.071330,1,1,0
287,8,-0.549230,0.015458,-0.030583,0.025632,1,1,0
292,8,-0.599419,-0.010402,-0.054016,0.116612,1,1,0
333,9,-0.584145,0.041270,0.031441,0.077238,1,1,0
329,9,-0.634503,-0.008379,-0.062847,0.057564,1,1,0
349,9,-0.646570,-0.019648,-0.084700,0.086630,1,1,0
348,9,-0.553393,-0.028295,-0.010491,0.144351,1,1,0
340,9,-0.582591,-0.088076,-0.048118,0.093256,1,1,0
322,9,-0.644057,0.016393,-0.007059,0.068117,1,1,0
354,9,-0.549941,-0.000449,-0.167130,0.071219,1,1,0
344,9,-0.526106,0.020083,-0.073206,0.086853,1,1,0
345,9,-0.595372,-0.013181,-0.043481,0.136262,1,1,0
336,9,-0.566929,-0.028003,-0.065391,0.163508,1,1,0
325,9,-0.587470,0.028345,-0.006861,0.027517,1,1,0
341,9,-0.721776,-0.122383,-0.026946,0.098239,0,1,0
332,9,-0.659032,-0.047074,-0.029141,0.030752,1,1,0
338,9,-0.605015,-0.061600,-0.058836,0.104988,1,1,0
320,9,-0.480174,0.088249,-0.028381,0.022452,1,0,0
327,9,-0.616065,0.045572,-0.083758,0.070225,1,1,0
346,9,-0.635985,0.013544,-0.156525,0.147517,1,1,0
321,9,-0.621149,-0.007595,-0.005577,0.092807,1,1,0
350,9,-0.667692,-0.064260,-0.092562,0.046926,1,1,0
339,9,-0.631032,-0.009646,-0.100902,0.072025,1,1,0
324,9,-0.565109,-0.043692,-0.046466,0.074927,1,1,0
342,9,-0.609518,-0.076386,-0.069345,0.083992,1,1,0
343,9,-0.576604,-0.027644,-0.081696,0.081865,1,1,0
335,9,-0.666345,-0.026406,-0.002191,0.066190,1,1,0
337,9,-0.645537,-0.036004,-0.014083,0.134356,1,1,0
351,9,-0.598329,-0.090802,-0.081828,0.090164,1,1,0
326,9,-0.573219,-0.018826,0.034886,0.000354,1,1,0
358,9,-0.613788,-0.011132,-0.091343,0.097335,1,1,0
352,9,-0.646926,-0.076122,-0.032480,0.149915,1,1,0
323,9,-0.576399,-0.044498,-0.055514,0.057603,1,1,0
334,9,-0.593505,-0.075006,-0.069251,0.067235,1,1,0
355,9,-0.599804,-0.052308,-0.184283,0.054817,1,1,0
328,9,-0.593208,-0.092782,-0.034614,0.153737,1,1,0
356,9,-0.677517,-0.075265,-0.118259,0.079099,1,1,0
357,9,-0.615717,0.014569,-0.057128,0.023338,1,1,0
330,9,-0.600781,0.008080,-0.031029,0.106129,1,1,0
347,9,-0.607097,-0.076515,-0.082300,0.033427,1,1,0
359,9,-0.609718,-0.090771,-0.077962,0.013764,1,1,0
331,9,-0.629882,-0.084109,-0.040373,0.064439,1,1,0
353,9,-0.596423,-0.058070,-0.123213,0.161642,1,1,0
382,10,-0.593028,-0.064109,-0.079112,0.182295,1,1,0
375,10,-0.622988,-0.063702,-0.108199,0.011595,1,1,0
373,10,-0.553330,0.063531,0.009698,0.036443,1,1,0
398,10,-0.578195,-0.074279,-0.121992,0.031531,1,1,0
377,10,-0.605382,-0.025901,-0.001427,0.083866,1,1,0
399,10,-0.612347,-0.030804,-0.023316,0.116846,1,1,0
360,10,-0.545742,-0.021018,0.020490,0.093148,1,1,0
366,10,-0.624632,-0.005360,-0.004910,0.060843,1,1,0
386,10,-0.529966,0.021277,-0.049144,0.132850,1,1,0
361,10,-0.537821,-0.013455,0.010794,0.009367,1,1,0
367,10,-0.588789,0.030262,0.019218,0.115565,1,1,0
394,10,-0.578578,0.063141,-0.172574,0.085517,1,1,0
370,10,-0.628781,-0.057261,-0.153188,0.064061,1,1,0
392,10,-0.630407,-0.045192,-0.009315,0.241283,1,1,0
368,10,-0.555920,0.061290,0.011024,0.099505,1,1,0
397,10,-0.506370,-0.029985,-0.088495,0.045511,1,1,0
362,10,-0.500775,0.044656,0.026031,0.055939,1,1,0
372,10,-0.690985,-0.017992,-0.018394,-0.000640,1,1,0
380,10,-0.616588,-0.027387,-0.104448,0.138802,1,1,0
393,10,-0.632919,-0.075018,-0.088388,0.128869,1,1,0
365,10,-0.655444,0.003208,0.039888,0.047091,1,1,0
383,10,-0.682161,-0.071381,-0.104137,-0.036092,1,1,0
391,10,-0.680445,-0.036550,-0.128102,0.122855,1,1,0
376,10,-0.562797,0.013999,-0.009448,0.116771,1,1,0
390,10,-0.568404,-0.028753,-0.011794,-0.005758,1,1,0
371,10,-0.599974,-0.099802,-0.076261,0.087161,1,1,0
369,10,-0.605809,0.069517,-0.031372,0.041714,1,1,0
385,10,-0.569571,0.022555,-0.026993,0.115920,1,1,0
379,10,-0.672679,-0.091681,0.011693,0.127573,1,1,0
381,10,-0.612697,-0.042333,-0.087741,-0.040151,1,1,0
387,10,-0.618657,-0.016556,-0.012124,0.131731,1,1,0
364,10,-0.618568,0.010028,0.003572,0.058039,1,1,0
395,10,-0.575460,-0.047849,-0.140465,0.089437,1,1,0
396,10,-0.618544,-0.029963,-0.092810,-0.049136,1,1,0
363,10,-0.636875,-0.050924,-0.028584,0.092400,1,1,0
374,10,-0.584005,-0.005497,-0.068858,0.056481,1,1,0
378,10,-0.619706,-0.036024,-0.036559,-0.061251,1,1,0
389,10,-0.551749,-0.186449,-0.140553,0.066475,0,1,0
384,10,-0.560184,0.005815,-0.093738,0.075952,1,1,0
388,10,-0.555870,-0.109892,-0.113167,0.053930,1,1,0
433,11,-0.604167,-0.036737,-0.129767,0.151886,1,1,0
421,11,-0.648006,-0.096028,-0.037926,0.003961,1,1,0
438,11,-0.594732,-0.059199,-0.111633,0.123333,1,1,0
407,11,-0.576994,-0.067215,0.026742,0.057704,1,1,0
404,11,-0.659784,0.053728,-0.023466,0.114815,1,1,0
425,11,-0.657546,-0.004408,-0.102760,0.140079,1,1,0
435,11,-0.561575,-0.034621,-0.138314,0.062815,1,1,0
403,11,-0.540944,-0.015833,-0.028122,0.085101,1,1,0
418,11,-0.626720,0.012958,0.036120,0.111626,1,1,0
416,11,-0.597145,0.019621,-0.080485,0.069955,1,1,0
437,11,-0.617387,-0.009458,-0.030447,0.086318,1,1,0
409,11,-0.686292,0.097373,-0.022848,0.093131,1,0,0
431,11,-0.675849,0.034409,-0.106643,0.106209,1,1,0
434,11,-0.613832,-0.028147,-0.090636,0.124903,1,1,0
429,11,-0.628547,-0.040278,-0.121963,0.095399,1,1,0
424,11,-0.687760,-0.051691,-0.049086,0.099446,1,1,0
411,11,-0.592160,0.035050,-0.101862,0.035696,1,1,0
405,11,-0.642082,0.032956,-0.065288,0.024112,1,1,0
422,11,-0.649306,-0.049537,-0.117114,0.067473,1,1,0
423,11,-0.527585,-0.012179,-0.086470,0.107237,1,1,0
406,11,-0.573176,-0.062170,-0.057743,0.109037,1,1,0
417,11,-0.616646,-0.120087,0.000401,0.074314,1,1,0
408,11,-0.650878,0.063153,-0.055662,0.091935,1,1,0
412,11,-0.619078,-0.004939,-0.083763,0.051231,1,1,0
427,11,-0.655778,0.000675,-0.134014,0.119726,1,1,0
410,11,-0.726268,0.036237,-0.047274,-0.041049,1,1,0
420,11,-0.664069,-0.047953,-0.023556,-0.015528,1,1,0
413,11,-0.531650,0.016014,-0.144469,0.092335,1,1,0
419,11,-0.541154,-0.001984,-0.042720,0.020497,1,1,0
432,11,-0.571909,0.042127,-0.046253,0.020098,1,1,0
436,11,-0.617480,-0.054076,-0.086586,0.093984,1,1,0
428,11,-0.662218,-0.025729,-0.171911,0.039896,1,1,0
426,11,-0.605629,-0.030241,-0.077312,0.080612,1,1,0
402,11,-0.576981,-0.002982,0.033268,0.078877,1,1,0
401,11,-0.633370,-0.046710,-0.048040,0.098468,1,1,0
400,11,-0.638240,-0.010037,0.002693,0.023712,1,1,0
415,11,-0.537972,0.017801,-0.074517,0.048231,1,1,0
439,11,-0.726541,-0.064535,-0.174006,0.160191,1,1,0
414,11,-0.601347,0.018292,-0.062170,0.019915,1,1,0
430,11,-0.704433,-0.143930,-0.148690,0.037641,0,1,0
445,12,-0.649392,0.038318,-0.107956,0.033816,1,1,0
459,12,-0.567716,0.014516,-0.084724,0.005155,1,1,0
475,12,-0.545740,-0.034536,-0.086858,-0.105247,1,1,0
468,12,-0.660085,-0.094559,-0.126262,0.014668,1,1,0
478,12,-0.577749,-0.090418,-0.087543,0.123344,1,1,0
443,12,-0.500247,-0.078828,-0.102339,0.034385,1,1,0
473,12,-0.593242,-0.023697,-0.134399,0.060886,1,1,0
454,12,-0.578597,-0.003309,-0.045193,0.151211,1,1,0
440,12,-0.598745,-0.046397,-0.091878,0.063473,1,1,0
467,12,-0.627514,-0.066562,-0.056159,0.155141,1,1,0
457,12,-0.640659,-0.005188,0.012052,0.131171,1,1,0
472,12,-0.498230,-0.129320,-0.118294,0.008547,0,1,0
448,12,-0.605955,-0.084000,-0.057866,-0.063591,1,1,0
464,12,-0.538087,0.006618,-0.023704,0.069937,1,1,0
462,12,-0.570244,0.061467,-0.010340,0.147960,1,1,0
471,12,-0.599586,0.000099,-0.120165,0.169850,1,1,0
452,12,-0.591541,-0.069385,-0.081020,0.006866,1,1,0
442,12,-0.638926,-0.017094,-0.083373,0.008743,1,1,0
453,12,-0.600113,0.000408,-0.075635,0.053321,1,1,0
446,12,-0.591188,-0.099290,-0.075544,0.003045,1,1,0
441,12,-0.585344,-0.098078,-0.061548,0.072249,1,1,0
474,12,-0.606041,-0.060301,-0.187813,-0.026761,1,1,0
444,12,-0.488886,-0.019571,0.009063,0.092341,1,1,0
450,12,-0.616864,-0.032023,-0.019758,0.054278,1,1,0
476,12,-0.668635,-0.082359,-0.025619,0.079002,1,1,0
466,12,-0.626552,0.013285,-0.077568,0.121697,1,1,0
460,12,-0.699226,-0.036946,-0.079492,0.194568,1,1,0
449,12,-0.594921,0.068462,0.011859,0.035857,1,1,0
458,12,-0.705762,-0.012735,-0.002560,0.095137,1,1,0
461,12,-0.557720,-0.086836,-0.063765,0.162667,1,1,0
456,12,-0.590180,-0.002867,-0.012075,0.082843,1,1,0
447,12,-0.614738,0.156767,-0.030832,0.101581,1,0,0
477,12,-0.490183,-0.076699,-0.061403,0.123532,1,1,0
463,12,-0.614539,-0.031948,-0.171883,0.061923,1,1,0
469,12,-0.601904,0.081112,-0.093430,0.093408,1,1,0
465,12,-0.579846,-0.061293,-0.110710,-0.026946,1,1,0
451,12,-0.616936,-0.028833,0.017276,0.116288,1,1,0
470,12,-0.573865,0.013517,-0.027840,0.010825,1,1,0
455,12,-0.519948,-0.014504,-0.079850,0.118996,1,1,0
479,12,-0.514006,-0.138779,-0.135144,0.177948,0,1,0
493,13,-0.706078,-0.005993,-0.048926,-0.013439,1,1,0
515,13,-0.647270,0.033388,-0.145890,0.088041,1,1,0
492,13,-0.680413,0.058675,-0.088489,-0.056506,1,1,0
483,13,-0.656423,0.068462,-0.050750,0.086315,1,1,0
518,13,-0.588499,-0.027250,-0.112431,0.157089,1,1,0
510,13,-0.665049,-0.058364,-0.084036,0.031842,1,1,0
499,13,-0.602469,-0.007118,-0.082134,0.069569,1,1,0
501,13,-0.603541,-0.135275,-0.076086,0.080733,1,1,0
516,13,-0.616159,0.049704,-0.112833,0.025659,1,1,0
498,13,-0.685664,0.053669,-0.034948,0.038921,1,1,0
489,13,-0.563331,-0.081764,-0.061751,0.038985,1,1,0
494,13,-0.516213,0.062865,-0.119263,0.063313,1,1,0
506,13,-0.592933,-0.088927,-0.009923,0.097099,1,1,0
512,13,-0.551233,-0.144008,-0.093032,0.184006,0,1,0
517,13,-0.519729,-0.112312,-0.100557,0.008022,1,1,0
503,13,-0.626916,-0.047556,-0.027220,0.059715,1,1,0
484,13,-0.602648,0.038810,-0.104257,0.001788,1,1,0
486,13,-0.569355,0.090767,-0.120166,0.011482,1,1,0
505,13,-0.609750,-0.136693,-0.052542,0.050932,1,1,0
482,13,-0.562072,0.019740,-0.175575,0.075453,1,1,0
508,13,-0.584910,-0.014697,-0.176190,0.099361,1,1,0
496,13,-0.599411,0.001645,0.014393,0.102484,1,1,0
511,13,-0.648954,-0.056453,0.020057,0.201944,1,1,0
507,13,-0.625599,-0.113625,-0.138767,0.067045,1,1,0
488,13,-0.610595,-0.040556,-0.023555,-0.002589,1,1,0
490,13,-0.604166,-0.052180,0.080363,0.034335,1,1,0
500,13,-0.618990,-0.111488,-0.065088,-0.005006,1,1,0
497,13,-0.626895,0.003845,0.049997,0.036922,1,1,0
504,13,-0.551423,-0.019430,-0.131947,0.082134,1,1,0
481,13,-0.563463,-0.054507,-0.055309,0.008852,1,1,0
485,13,-0.596818,-0.022124,-0.064806,0.046731,1,1,0
491,13,-0.563935,0.054209,-0.105412,-0.003305,1,1,0
509,13,-0.594366,-0.118024,-0.087031,0.095467,1,1,0
519,13,-0.675595,0.010499,-0.178634,0.126436,1,1,0
487,13,-0.598885,0.020261,0.015421,0.037700,1,1,0
495,13,-0.640691,0.064862,-0.024398,0.073979,1,1,0
513,13,-0.602881,-0.022666,-0.070253,0.021972,1,1,0
514,13,-0.636672,0.006195,-0.049666,0.079838,1,1,0
480,13,-0.564132,0.035192,-0.003077,0.111202,1,1,0
502,13,-0.622886,-0.023805,-0.073717,0.135656,1,1,0
538,14,-0.625051,0.102808,-0.046773,0.119217,1,1,0
522,14,-0.601039,-0.098207,0.019341,0.018567,1,1,0
534,14,-0.647823,0.028754,0.025461,0.026964,1,1,0
559,14,-0.703804,-0.078764,-0.060556,0.144810,1,1,0
529,14,-0.634887,-0.018095,-0.135243,0.078069,1,1,0
523,14,-0.583080,0.004660,-0.077704,0.056128,1,1,0
526,14,-0.660996,-0.015904,0.082909,0.157048,1,1,0
551,14,-0.668534,-0.041684,-0.078726,0.126902,1,1,0
557,14,-0.586201,-0.052544,-0.068320,0.060993,1,1,0
525,14,-0.577631,0.041967,0.010829,0.039546,1,1,0
558,14,-0.561467,-0.126799,-0.080065,0.155770,1,1,0
524,14,-0.551064,-0.025484,-0.002195,0.077975,1,1,0
542,14,-0.658860,0.039064,-0.076308,0.074387,1,1,0
536,14,-0.541761,0.046601,-0.063879,0.033100,1,1,0
556,14,-0.659346,0.071997,-0.079983,0.053210,1,1,0
541,14,-0.621015,-0.100921,-0.077728,0.054665,1,1,0
520,14,-0.588651,0.019146,-0.051002,0.066572,1,1,0
521,14,-0.617114,0.026646,0.002080,0.099052,1,1,0
539,14,-0.630924,-0.037358,-0.073254,0.087639,1,1,0
533,14,-0.612969,0.074488,-0.023106,0.052165,1,1,0
528,14,-0.511427,0.004293,-0.005304,-0.011406,1,1,0
537,14,-0.604335,0.061891,-0.097036,0.103860,1,1,0
549,14,-0.662516,-0.022726,-0.123392,0.175280,1,1,0
540,14,-0.553722,0.057546,-0.120029,0.137583,1,1,0
535,14,-0.617002,-0.040423,-0.032188,0.085752,1,1,0
530,14,-0.646288,-0.071640,-0.053107,0.059019,1,1,0
555,14,-0.573253,-0.098991,-0.137820,0.104819,1,1,0
552,14,-0.612187,-0.121479,-0.110922,0.120982,1,1,0
531,14,-0.650060,0.041305,-0.006080,0.042269,1,1,0
527,14,-0.543138,0.017383,-0.029304,0.073941,1,1,0
546,14,-0.658183,0.052148,-0.094789,0.175828,1,1,0
543,14,-0.541454,-0.074721,-0.082138,0.162770,1,1,0
532,14,-0.593263,0.050966,-0.096696,0.046870,1,1,0
554,14,-0.526571,0.055892,-0.023026,0.030917,1,1,0
544,14,-0.570293,0.065124,-0.088713,0.130536,1,1,0
550,14,-0.614898,-0.072166,-0.117888,0.160702,1,1,0
548,14,-0.545932,-0.061590,-0.134702,0.024996,1,1,0
547,14,-0.648184,-0.119158,-0.166021,0.058114,1,1,0
553,14,-0.706495,-0.071959,-0.054580,0.084745,1,1,0
545,14,-0.593344,-0.048619,-0.090556,0.101271,1,1,0
561,15,-0.598174,-0.125617,0.015336,0.109783,1,1,0
598,15,-0.604205,-0.076233,0.043890,0.067610,1,1,0
568,15,-0.531806,0.001773,-0.012333,0.009926,1,1,0
587,15,-0.621508,-0.069215,-0.138793,0.147357,1,1,0
578,15,-0.535190,-0.057605,-0.019193,0.083359,1,1,0
574,15,-0.543196,-0.010680,-0.019533,0.135265,1,1,0
562,15,-0.584036,0.022734,0.066937,0.117632,1,1,0
588,15,-0.547711,0.005519,-0.052133,0.052035,1,1,0
589,15,-0.667726,-0.011921,-0.081333,0.165179,1,1,0
596,15,-0.619827,-0.015653,-0.004121,0.079551,1,1,0
590,15,-0.536402,-0.039590,-0.121932,0.085067,1,1,0
581,15,-0.564523,0.018005,-0.099912,0.080915,1,1,0
573,15,-0.522601,0.028780,-0.148713,-0.015838,1,1,0
577,15,-0.631134,0.015559,-0.010967,0.057291,1,1,0
567,15,-0.625106,0.127134,0.034567,0.088651,1,0,0
594,15,-0.547302,-0.146518,-0.080262,0.119341,0,1,0
584,15,-0.599505,-0.088449,-0.078329,0.099093,1,1,0
564,15,-0.594098,0.018327,-0.122323,0.030031,1,1,0
582,15,-0.579409,0.014927,-0.088911,0.189132,1,1,0
595,15,-0.597704,0.023934,-0.090501,0.082510,1,1,0
575,15,-0.574037,0.020806,-0.021973,0.079550,1,1,0
576,15,-0.628381,0.077272,-0.086878,0.153140,1,1,0
571,15,-0.630760,0.024626,0.028788,0.050311,1,1,0
599,15,-0.617695,-0.057175,-0.097112,0.036700,1,1,0
569,15,-0.646789,-0.030542,0.079837,0.004691,1,1,0
560,15,-0.685396,-0.024977,0.006929,0.138792,1,1,0
570,15,-0.646400,0.020587,-0.092625,-0.067523,1,1,0
580,15,-0.655805,0.024706,-0.072324,0.061376,1,1,0
566,15,-0.618022,0.000906,0.033722,0.039304,1,1,0
572,15,-0.602945,-0.014779,-0.028393,0.097000,1,1,0
585,15,-0.723405,-0.067959,-0.039907,0.069391,1,1,0
591,15,-0.615256,-0.043117,-0.074001,0.111546,1,1,0
593,15,-0.595510,-0.038910,-0.135241,0.111581,1,1,0
563,15,-0.572457,-0.028333,0.009323,0.084270,1,1,0
586,15,-0.578190,-0.009979,-0.139360,0.117363,1,1,0
579,15,-0.664652,-0.010182,-0.110726,0.111126,1,1,0
565,15,-0.586830,0.024863,-0.047237,0.195456,1,1,0
583,15,-0.597243,-0.112377,-0.097060,0.018503,1,1,0
597,15,-0.596846,0.005837,-0.028234,0.210567,1,1,0
592,15,-0.528640,-0.078415,-0.154656,0.078189,1,1,0
625,16,-0.673559,0.026977,-0.188273,0.088007,1,1,0
633,16,-0.502994,-0.099804,-0.096106,0.120408,1,1,0
604,16,-0.624269,-0.012599,-0.065305,0.103833,1,1,0
631,16,-0.510063,-0.039126,-0.116682,0.100898,1,1,0
624,16,-0.592004,0.029783,-0.154641,0.108048,1,1,0
615,16,-0.601311,0.054200,0.014694,0.043193,1,1,0
606,16,-0.580285,-0.024249,-0.117908,0.028156,1,1,0
614,16,-0.608547,0.035168,-0.058760,-0.017778,1,1,0
622,16,-0.653751,-0.052313,-0.104894,0.049460,1,1,0
618,16,-0.644012,0.026613,-0.098530,-0.019940,1,1,0
610,16,-0.671337,0.117342,-0.008021,0.074434,1,0,0
636,16,-0.637879,0.064840,-0.109116,0.096025,1,1,0
635,16,-0.665753,-0.037987,-0.134315,0.084230,1,1,0
619,16,-0.716747,0.074122,-0.002071,0.058138,1,0,0
611,16,-0.531567,0.002514,-0.083931,0.086283,1,1,0
621,16,-0.642170,-0.026135,-0.127334,0.061558,1,1,0
630,16,-0.638164,-0.098410,-0.016253,-0.058785,1,1,0
612,16,-0.506441,0.004347,-0.051787,-0.006476,1,1,0
616,16,-0.589132,-0.014961,-0.081848,0.049756,1,1,0
627,16,-0.652344,-0.012044,-0.094882,0.097233,1,1,0
601,16,-0.544680,0.100383,-0.122909,0.070975,1,0,0
637,16,-0.617392,-0.058652,-0.150019,0.055428,1,1,0
607,16,-0.591022,-0.062507,0.028340,0.052489,1,1,0
605,16,-0.567984,-0.004803,-0.095035,0.128994,1,1,0
603,16,-0.557614,0.158263,-0.004353,0.032206,1,0,0
609,16,-0.600545,-0.048836,-0.109999,0.138766,1,1,0
629,16,-0.570315,-0.033241,0.016974,-0.015367,1,1,0
623,16,-0.698751,-0.094884,-0.133531,0.167010,1,1,0
602,16,-0.675286,-0.052992,-0.091666,0.085095,1,1,0
613,16,-0.588197,0.106123,-0.104451,0.073754,1,0,0
600,16,-0.666440,-0.017994,-0.033187,0.043015,1,1,0
620,16,-0.592193,0.042046,-0.154997,0.043209,1,1,0
626,16,-0.596448,-0.029541,-0.053453,0.078224,1,1,0
608,16,-0.633971,-0.053318,-0.059652,0.102876,1,1,0
639,16,-0.583222,0.013844,-0.039532,0.034551,1,1,0
617,16,-0.634060,-0.128973,-0.076839,0.020392,1,1,0
632,16,-0.625499,-0.076261,-0.120994,0.112616,1,1,0
628,16,-0.710106,-0.093571,-0.075499,0.166951,1,1,0
634,16,-0.696593,-0.086248,-0.103189,0.062496,1,1,0
638,16,-0.647200,-0.097731,-0.008651,0.076546,1,1,0
666,17,-0.629526,-0.028866,-0.169368,0.124241,1,1,0
660,17,-0.584891,-0.100549,-0.022316,0.100752,1,1,0
642,17,-0.603247,0.015585,-0.024282,0.072518,1,1,0
649,17,-0.700996,-0.021828,0.038126,0.025791,1,1,0
651,17,-0.582507,0.029402,0.078228,0.053701,1,1,0
671,17,-0.541667,-0.100705,-0.036528,0.101369,1,1,0
659,17,-0.525678,-0.021685,-0.019564,0.031944,1,1,0
679,17,-0.545413,0.040324,-0.068595,0.115366,1,1,0
678,17,-0.515555,-0.014188,-0.155749,0.131220,1,1,0
653,17,-0.529403,-0.044910,0.036948,0.147943,1,1,0
670,17,-0.605245,-0.029564,-0.095762,0.041165,1,1,0
668,17,-0.559814,-0.021012,-0.098653,0.045854,1,1,0
650,17,-0.575064,-0.032806,-0.082854,0.050554,1,1,0
673,17,-0.624454,0.018151,-0.079388,0.103463,1,1,0
658,17,-0.625334,0.030013,0.028035,0.027131,1,1,0
652,17,-0.667924,0.075336,-0.061275,0.090331,1,1,0
675,17,-0.532243,0.034181,-0.087130,0.114776,1,1,0
676,17,-0.657051,0.023834,-0.191929,0.084001,1,1,0
647,17,-0.596965,0.008574,-0.068571,0.014674,1,1,0
669,17,-0.600568,0.013904,-0.057982,0.013727,1,1,0
646,17,-0.610076,0.020760,-0.073429,0.161447,1,1,0
672,17,-0.603333,-0.089751,-0.078347,0.035015,1,1,0
641,17,-0.585624,-0.124580,-0.006171,0.141170,1,1,0
643,17,-0.604557,0.016756,0.001097,0.104506,1,1,0
665,17,-0.577538,-0.031893,-0.094358,0.117176,1,1,0
644,17,-0.570860,0.013955,-0.020028,0.069503,1,1,0
655,17,-0.614905,0.141526,-0.029235,-0.043319,1,0,0
645,17,-0.611504,-0.095058,-0.102208,0.120681,1,1,0
664,17,-0.596319,-0.093922,-0.144215,0.050448,1,1,0
677,17,-0.561590,0.013483,-0.001662,0.054155,1,1,0
654,17,-0.559614,0.026175,-0.162994,0.029914,1,1,0
661,17,-0.643453,-0.076909,-0.078451,0.140816,1,1,0
648,17,-0.617889,-0.009248,0.017119,0.048644,1,1,0
663,17,-0.600689,-0.066129,0.019956,0.049401,1,1,0
662,17,-0.535413,-0.046965,-0.182893,0.139635,1,1,0
667,17,-0.651433,0.051476,-0.092807,0.043210,1,1,0
640,17,-0.547722,0.036098,0.058396,0.031381,1,1,0
674,17,-0.583919,-0.058492,-0.179009,0.058342,1,1,0
657,17,-0.560258,0.075831,0.016560,0.127120,1,1,0
656,17,-0.682143,0.030815,-0.043250,0.103168,1,1,0
692,18,-0.551213,-0.021433,-0.072920,0.030197,1,1,0
698,18,-0.630804,0.079905,0.013693,0.060187,1,1,0
687,18,-0.614778,-0.067788,0.008963,0.038375,1,1,0
683,18,-0.688480,0.028811,-0.052083,0.023176,1,1,0
713,18,-0.631487,-0.064451,-0.155913,0.088398,1,1,0
680,18,-0.617906,0.013307,-0.094229,0.076343,1,1,0
711,18,-0.474648,-0.003073,-0.086801,0.019488,1,1,0
695,18,-0.617172,0.034938,-0.091090,0.036684,1,1,0
699,18,-0.594909,-0.018194,-0.176071,0.121425,1,1,0
696,18,-0.541307,-0.074753,-0.057157,0.091959,1,1,0
710,18,-0.599558,-0.019993,-0.019820,0.164154,1,1,0
719,18,-0.561182,-0.014143,-0.093257,0.148531,1,1,0
702,18,-0.691912,-0.020729,-0.110423,0.165032,1,1,0
705,18,-0.621982,-0.116041,-0.138344,0.108765,1,1,0
681,18,-0.624472,0.003814,-0.063660,0.059628,1,1,0
712,18,-0.587140,-0.075271,-0.096042,0.075163,1,1,0
715,18,-0.558836,-0.015867,-0.035997,0.080768,1,1,0
701,18,-0.647614,-0.098259,-0.125985,0.105866,1,1,0
700,18,-0.610268,-0.146569,-0.022481,0.096890,0,1,0
686,18,-0.547763,-0.063584,0.023316,0.119565,1,1,0
691,18,-0.586963,0.064729,-0.023023,0.029730,1,1,0
684,18,-0.645271,-0.013915,-0.090236,0.065008,1,1,0
689,18,-0.560548,0.004099,-0.026346,0.011075,1,1,0
703,18,-0.591508,-0.052287,-0.081733,0.131791,1,1,0
708,18,-0.626671,-0.007661,-0.131299,0.153118,1,1,0
682,18,-0.564713,0.062631,-0.043818,0.013866,1,1,0
718,18,-0.593956,-0.004767,-0.066991,0.102863,1,1,0
697,18,-0.699068,-0.109461,-0.032938,0.075629,1,1,0
690,18,-0.634251,-0.019404,-0.062685,0.083112,1,1,0
685,18,-0.590459,0.079952,-0.113706,0.049392,1,1,0
694,18,-0.580776,0.056012,-0.031766,-0.017550,1,1,0
717,18,-0.638867,0.005513,-0.093606,0.024832,1,1,0
709,18,-0.634047,0.016729,-0.091240,0.207265,1,1,0
693,18,-0.572646,0.018680,-0.093951,0.056279,1,1,0
707,18,-0.530989,-0.112512,-0.125407,0.157549,1,1,0
716,18,-0.581646,-0.011113,-0.094357,0.107146,1,1,0
714,18,-0.503872,0.112093,-0.032168,0.081939,1,1,0
704,18,-0.613809,0.037191,-0.088199,0.013691,1,1,0
706,18,-0.566868,-0.042437,-0.059094,0.031704,1,1,0
688,18,-0.543462,-0.040414,-0.055037,0.131138,1,1,0
721,19,-0.561380,0.052950,-0.116534,-0.038657,1,1,0
749,19,-0.609208,-0.035997,-0.137228,0.023686,1,1,0
734,19,-0.586577,-0.062750,0.015995,0.110837,1,1,0
747,19,-0.663417,-0.028237,-0.301534,0.072023,1,1,0
724,19,-0.538109,0.009498,-0.006562,0.137268,1,1,0
726,19,-0.537764,-0.027062,-0.018722,0.117866,1,1,0
745,19,-0.617628,-0.080277,-0.265084,0.083410,1,1,0
748,19,-0.608796,-0.098866,-0.242277,0.007150,1,1,0
757,19,-0.607601,-0.077704,-0.115716,0.061731,1,1,0
737,19,-0.684607,-0.061450,-0.028819,0.028720,1,1,0
732,19,-0.671619,0.042136,-0.010071,0.042063,1,1,0
730,19,-0.622207,-0.037567,-0.115680,0.055760,1,1,0
744,19,-0.564177,-0.087352,-0.157458,0.126798,1,1,0
743,19,-0.555428,-0.052029,-0.233368,0.142212,1,1,0
740,19,-0.640899,-0.009784,-0.243925,0.159482,1,1,0
720,19,-0.565422,-0.085527,-0.091864,0.005847,1,1,0
735,19,-0.624072,-0.035368,0.039449,0.124571,1,1,0
736,19,-0.618717,0.031665,-0.011375,0.058494,1,1,0
752,19,-0.582079,-0.020834,-0.153565,0.056629,1,1,0
756,19,-0.569909,-0.120008,-0.175364,0.085854,1,1,0
723,19,-0.666686,0.045226,-0.015011,0.114615,1,1,0
729,19,-0.624837,0.041791,-0.053018,0.068151,1,1,0
728,19,-0.481186,0.052124,-0.074651,0.078104,1,0,0
742,19,-0.675852,-0.139895,-0.160508,0.054315,0,1,0
733,19,-0.595383,-0.072284,0.003891,0.031387,1,1,0
722,19,-0.517258,0.077869,-0.034545,0.058242,1,1,0
753,19,-0.597118,-0.046638,-0.059031,0.071057,1,1,0
755,19,-0.634637,-0.049727,-0.237393,0.051261,1,1,0
746,19,-0.748389,0.004775,-0.214430,0.111664,1,1,0
759,19,-0.578124,0.005197,-0.169429,0.079811,1,1,0
758,19,-0.525428,-0.071025,-0.120813,0.099893,1,1,0
739,19,-0.554740,0.002437,-0.004896,0.023818,1,1,0
750,19,-0.613494,0.002419,-0.177255,0.121117,1,1,0
731,19,-0.653364,0.016108,-0.032315,0.107131,1,1,0
727,19,-0.649215,-0.021457,-0.070796,0.014371,1,1,0
741,19,-0.639545,-0.004135,-0.157764,0.044177,1,1,0
738,19,-0.620456,0.013273,0.026972,0.055707,1,1,0
751,19,-0.624938,-0.054307,-0.124713,0.022846,1,1,0
754,19,-0.600156,-0.064511,-0.137034,0.111572,1,1,0
725,19,-0.629727,0.002507,-0.057294,0.064111,1,1,0
760,20,-0.573411,-0.047527,-0.069010,0.133076,1,1,0
780,20,-0.503303,-0.013697,-0.089454,0.059160,1,1,0
793,20,-0.624181,0.030421,-0.159513,0.028794,1,1,0
768,20,-0.613227,-0.002455,-0.019616,0.015287,1,1,0
785,20,-0.660888,-0.075968,-0.157293,0.068466,1,1,0
767,20,-0.647832,0.029953,-0.115827,0.042629,1,1,0
764,20,-0.583177,-0.007204,-0.125040,0.038652,1,1,0
782,20,-0.562991,-0.007917,-0.178778,0.087339,1,1,0
779,20,-0.628572,0.034733,-0.041734,0.039559,1,1,0
761,20,-0.588260,0.022638,-0.075537,0.068557,1,1,0
778,20,-0.620190,-0.018970,-0.134639,0.071705,1,1,0
783,20,-0.534763,0.007165,-0.082234,0.166661,1,1,0
777,20,-0.638163,-0.058976,-0.061417,0.076266,1,1,0
784,20,-0.629093,-0.079601,-0.128050,0.177015,1,1,0
796,20,-0.606147,-0.034561,-0.145237,-0.006969,1,1,0
775,20,-0.737153,0.007548,-0.050667,0.078657,1,1,0
772,20,-0.673164,-0.016386,-0.113058,0.064655,1,1,0
769,20,-0.602628,-0.030964,-0.037472,0.151841,1,1,0
771,20,-0.636940,-0.034346,-0.069892,0.163047,1,1,0
798,20,-0.584807,-0.018968,-0.123621,0.133294,1,1,0
762,20,-0.586419,0.043167,-0.071184,0.019056,1,1,0
774,20,-0.552724,0.031195,-0.064910,0.149402,1,1,0
765,20,-0.619885,-0.064333,-0.107086,0.112088,1,1,0
795,20,-0.694277,0.029882,-0.119063,0.134025,1,1,0
786,20,-0.617754,-0.081565,-0.198491,0.078118,1,1,0
789,20,-0.631370,-0.006670,-0.169059,0.043991,1,1,0
781,20,-0.549072,-0.031022,-0.162201,0.027746,1,1,0
787,20,-0.574784,-0.011700,-0.251387,0.107918,1,1,0
792,20,-0.616113,-0.030161,-0.213105,0.058815,1,1,0
776,20,-0.617379,0.039749,-0.065273,0.067701,1,1,0
791,20,-0.606485,-0.069828,-0.132546,0.084989,1,1,0
773,20,-0.586504,-0.055338,-0.127684,0.090519,1,1,0
770,20,-0.596739,0.023231,-0.021012,0.150484,1,1,0
790,20,-0.571043,0.013384,-0.160780,-0.012549,1,1,0
797,20,-0.626431,-0.070748,-0.235017,0.087865,1,1,0
788,20,-0.603057,-0.032073,-0.231062,0.095612,1,1,0
763,20,-0.599013,-0.014228,-0.081286,0.152542,1,1,0
794,20,-0.608500,-0.079352,-0.040218,0.037973,1,1,0
799,20,-0.518719,0.042691,-0.094697,0.120583,1,1,0
766,20,-0.520918,0.012263,0.016176,0.035845,1,1,0
825,21,-0.650454,-0.080974,-0.249167,-0.032636,1,1,0
819,21,-0.572441,-0.006251,-0.042797,0.051393,1,1,0
829,21,-0.669014,-0.073543,-0.194842,0.097796,1,1,0
824,21,-0.595287,-0.097238,-0.184563,0.046414,1,1,0
808,21,-0.682031,-0.042735,-0.028911,0.077975,1,1,0
831,21,-0.512405,-0.098097,-0.223912,0.123443,1,1,0
834,21,-0.545226,0.024036,-0.145601,0.177634,1,1,0
806,21,-0.620639,0.048489,-0.096641,0.064363,1,1,0
800,21,-0.611967,0.099910,0.026842,0.069372,1,1,0
809,21,-0.586679,-0.050418,0.021728,0.094479,1,1,0
838,21,-0.666371,-0.044413,-0.182595,0.061132,1,1,0
812,21,-0.511512,-0.042235,-0.042813,0.038525,1,1,0
823,21,-0.581832,0.067986,-0.182692,0.054829,1,1,0
830,21,-0.672490,-0.087761,-0.222060,0.076575,1,1,0
826,21,-0.597462,-0.053224,-0.225498,0.133578,1,1,0
804,21,-0.561601,0.067787,-0.080101,0.026424,1,1,0
803,21,-0.606586,0.030651,0.002841,0.110352,1,1,0
835,21,-0.576381,-0.062764,-0.119186,0.082112,1,1,0
827,21,-0.583049,-0.054296,-0.186098,0.040181,1,1,0
802,21,-0.615799,0.028535,-0.079793,0.088110,1,1,0
820,21,-0.539889,-0.019543,-0.130038,0.074947,1,1,0
833,21,-0.665914,-0.110904,-0.208347,0.109115,1,1,0
815,21,-0.588987,0.004752,-0.170584,0.083981,1,1,0
801,21,-0.633861,-0.015819,0.052354,0.147206,1,1,0
837,21,-0.601351,-0.127143,-0.131159,0.032364,1,1,0
821,21,-0.681121,-0.065645,-0.132665,0.107504,1,1,0
816,21,-0.624501,0.007247,-0.081801,0.071658,1,1,0
832,21,-0.637350,-0.105175,-0.204441,0.139626,1,1,0
817,21,-0.575755,0.025863,0.024580,0.051364,1,1,0
814,21,-0.642908,-0.011623,-0.080111,0.091116,1,1,0
836,21,-0.549460,-0.049375,-0.144918,0.008553,1,1,0
839,21,-0.612050,-0.100514,-0.144962,0.100539,1,1,0
818,21,-0.660624,0.090755,-0.068202,0.030936,1,1,0
813,21,-0.546453,-0.047264,0.051433,0.096352,1,1,0
805,21,-0.677160,0.011929,-0.021234,0.046667,1,1,0
807,21,-0.639048,-0.090218,-0.123060,0.089909,1,1,0
822,21,-0.521963,0.010320,-0.293942,0.000792,1,1,0
810,21,-0.765936,-0.013327,0.050561,0.010193,1,0,0
828,21,-0.656348,-0.001775,-0.157899,0.114595,1,1,0
811,21,-0.684857,0.022614,-0.067033,0.108114,1,1,0
854,22,-0.612776,-0.034137,0.012303,-0.020034,1,1,0
864,22,-0.615799,-0.032847,-0.141434,0.097896,1,1,0
845,22,-0.448833,-0.022063,0.022222,0.074281,1,0,0
840,22,-0.601105,-0.042791,-0.039023,0.046716,1,1,0
850,22,-0.596860,0.077099,0.015457,0.063792,1,1,0
856,22,-0.531099,0.011845,-0.040153,0.049089,1,1,0
865,22,-0.528449,-0.019818,-0.189312,0.221792,1,1,0
878,22,-0.601959,-0.087769,-0.173806,0.008535,1,1,0
875,22,-0.593942,-0.101266,-0.144273,-0.084082,1,1,0
844,22,-0.615504,0.024424,-0.002812,0.011426,1,1,0
873,22,-0.566855,-0.031289,-0.120252,0.069806,1,1,0
876,22,-0.594549,-0.062407,-0.268490,0.057034,1,1,0
872,22,-0.599097,-0.025571,-0.201824,0.037156,1,1,0
862,22,-0.643083,-0.115622,-0.196517,0.092115,1,1,0
870,22,-0.600207,-0.070187,-0.078602,0.055841,1,1,0
857,22,-0.638297,0.062802,-0.135154,0.080830,1,1,0
869,22,-0.544715,-0.055738,-0.114593,0.087971,1,1,0
871,22,-0.652530,-0.067043,-0.117383,0.070223,1,1,0
843,22,-0.634237,0.112251,-0.120670,0.021394,1,0,0
842,22,-0.588269,0.004213,-0.109338,0.076412,1,1,0
868,22,-0.637643,-0.049023,-0.121655,0.087719,1,1,0
852,22,-0.667469,0.015447,-0.053743,0.104221,1,1,0
855,22,-0.565365,-0.086167,-0.117014,0.096147,1,1,0
847,22,-0.618649,0.061954,-0.003049,0.061121,1,1,0
851,22,-0.667022,0.004254,-0.081669,0.087289,1,1,0
859,22,-0.633230,0.104109,-0.063885,0.065351,1,0,0
846,22,-0.530431,0.010780,-0.016682,-0.006578,1,1,0
879,22,-0.611286,0.035411,-0.102324,-0.008295,1,1,0
853,22,-0.533463,-0.019999,-0.005102,0.032245,1,1,0
860,22,-0.516494,0.019279,-0.219415,0.081915,1,1,0
841,22,-0.626508,-0.005061,-0.070577,0.066124,1,1,0
877,22,-0.605867,0.032916,-0.143595,-0.078874,1,1,0
858,22,-0.649322,-0.075396,-0.086160,0.039674,1,1,0
848,22,-0.627776,0.020084,-0.048652,0.080110,1,1,0
867,22,-0.550123,-0.027268,-0.158962,0.092337,1,1,0
874,22,-0.538201,-0.179728,-0.267046,0.097906,0,1,0
849,22,-0.641484,0.043001,-0.086669,0.158156,1,1,0
866,22,-0.564145,0.006265,-0.158231,0.112403,1,1,0
863,22,-0.560757,0.008413,-0.259395,0.061440,1,1,0
861,22,-0.667568,-0.081055,-0.186602,0.049119,1,1,0
889,23,-0.598126,-0.029570,-0.078937,0.109650,1,1,0
919,23,-0.568723,-0.102498,-0.226175,0.021433,1,1,0
900,23,-0.587620,-0.015618,-0.152040,0.140019,1,1,0
891,23,-0.627498,-0.015043,-0.089771,0.103968,1,1,0
914,23,-0.543632,-0.045406,-0.160333,-0.018100,1,1,0
881,23,-0.532901,-0.035497,-0.020907,0.076090,1,1,0
903,23,-0.565484,-0.101399,-0.140570,0.091208,1,1,0
892,23,-0.542452,0.061337,-0.068058,-0.084198,1,1,0
907,23,-0.625895,-0.060231,-0.240303,0.150549,1,1,0
887,23,-0.667397,-0.002082,0.058707,0.028766,1,1,0
910,23,-0.688121,0.006753,-0.159380,0.070605,1,1,0
898,23,-0.619439,0.053459,-0.055093,0.041228,1,1,0
901,23,-0.554599,0.054490,-0.279088,-0.020200,1,1,0
894,23,-0.615976,0.010945,0.059240,0.087750,1,1,0
883,23,-0.582468,-0.024418,0.003667,0.097231,1,1,0
895,23,-0.620093,0.082063,-0.084925,-0.007505,1,1,0
880,23,-0.678066,0.093436,-0.028741,0.038392,1,0,0
916,23,-0.557114,-0.080170,-0.185406,0.076737,1,1,0
917,23,-0.488686,-0.050939,-0.189232,0.058270,1,1,0
905,23,-0.615255,0.038732,-0.213888,-0.018632,1,1,0
913,23,-0.646550,-0.048426,-0.176081,0.081978,1,1,0
906,23,-0.585980,-0.004540,-0.179377,0.034690,1,1,0
899,23,-0.573088,0.039687,-0.036000,0.047227,1,1,0
908,23,-0.640401,-0.045496,-0.190124,0.127391,1,1,0
909,23,-0.590719,-0.043146,-0.189104,0.036815,1,1,0
893,23,-0.682177,0.054593,-0.054290,0.028377,1,1,0
902,23,-0.649637,-0.029888,-0.239515,0.110055,1,1,0
911,23,-0.584356,-0.064110,-0.235678,-0.030496,1,1,0
890,23,-0.628915,0.070469,-0.078176,0.069594,1,1,0
885,23,-0.628680,0.066033,-0.047570,0.033899,1,1,0
884,23,-0.679646,-0.070808,-0.188491,0.064356,1,1,0
882,23,-0.579731,0.016993,-0.078010,0.001230,1,1,0
888,23,-0.608972,0.023640,-0.099579,0.115467,1,1,0
918,23,-0.577961,-0.071840,-0.105703,0.108829,1,1,0
897,23,-0.589585,0.032694,-0.002290,0.078984,1,1,0
912,23,-0.684340,-0.111219,-0.151014,0.119619,1,1,0
896,23,-0.661347,0.035881,0.052613,0.059809,1,1,0
915,23,-0.596254,-0.133952,-0.143486,0.086149,1,1,0
904,23,-0.674849,-0.085920,-0.219289,0.086320,1,1,0
886,23,-0.595554,-0.031889,0.037063,0.044827,1,1,0
931,24,-0.560166,-0.000815,-0.065871,0.168539,1,1,0
940,24,-0.549953,0.016798,-0.192957,0.077602,1,1,0
928,24,-0.648741,-0.009555,-0.024332,0.034512,1,1,0
943,24,-0.613402,-0.022623,-0.209389,0.123653,1,1,0
937,24,-0.467254,-0.048018,-0.030273,0.163662,1,1,0
946,24,-0.611097,-0.086097,-0.206952,0.122812,1,1,0
927,24,-0.618742,0.001966,-0.034694,0.100336,1,1,0
923,24,-0.619070,-0.004910,0.004709,0.089324,1,1,0
941,24,-0.642811,-0.084372,-0.080717,0.008201,1,1,0
949,24,-0.592237,-0.088097,-0.199295,0.032634,1,1,0
932,24,-0.583908,0.038891,-0.059994,0.031754,1,1,0
947,24,-0.588040,-0.038100,-0.208396,0.080341,1,1,0
924,24,-0.545890,-0.068138,-0.062045,0.072219,1,1,0
956,24,-0.623052,0.066734,-0.137976,0.118735,1,1,0
953,24,-0.531102,0.023643,-0.210809,0.065012,1,1,0
959,24,-0.656926,-0.038871,-0.138164,0.076030,1,1,0
936,24,-0.599686,-0.041225,-0.085485,0.050188,1,1,0
945,24,-0.615193,0.007739,-0.201162,0.046356,1,1,0
950,24,-0.634899,0.013823,-0.154377,0.053600,1,1,0
948,24,-0.632743,-0.065330,-0.151356,0.010499,1,1,0
925,24,-0.615536,0.067646,-0.033008,0.103156,1,1,0
952,24,-0.556461,-0.033777,-0.083579,0.125183,1,1,0
938,24,-0.658432,0.016732,-0.088296,-0.008366,1,1,0
939,24,-0.572645,0.060881,0.037024,0.078146,1,1,0
942,24,-0.645212,-0.038171,-0.113066,-0.047616,1,1,0
930,24,-0.631164,-0.032912,-0.094858,0.120064,1,1,0
954,24,-0.625515,0.023453,-0.191534,0.044300,1,1,0
920,24,-0.664583,0.054101,-0.018330,0.105965,1,1,0
922,24,-0.547098,0.023695,-0.008642,0.107069,1,1,0
935,24,-0.606927,0.085974,-0.012863,0.029005,1,1,0
929,24,-0.744362,0.014967,0.010682,0.068446,1,0,0
958,24,-0.558429,-0.039610,-0.107658,0.036681,1,1,0
926,24,-0.629311,0.022684,0.004189,0.053348,1,1,0
955,24,-0.643066,-0.027057,-0.186801,0.105565,1,1,0
957,24,-0.591320,-0.014288,-0.065046,0.070235,1,1,0
921,24,-0.618657,-0.006719,-0.059287,-0.051237,1,1,0
951,24,-0.481661,-0.007700,-0.161770,0.050469,1,1,0
933,24,-0.596618,-0.044453,-0.032628,0.019476,1,1,0
944,24,-0.581513,-0.055421,-0.146240,0.077605,1,1,0
934,24,-0.631786,0.038208,-0.008275,0.113392,1,1,0
990,25,-0.606749,-0.118360,-0.208183,0.109421,1,1,0
996,25,-0.533461,-0.052867,-0.190170,0.117916,1,1,0
965,25,-0.658849,-0.002122,0.075760,0.068323,1,1,0
995,25,-0.660510,-0.038695,-0.181120,0.031619,1,1,0
977,25,-0.722939,0.008090,-0.124003,0.031464,1,1,0
983,25,-0.560674,-0.102546,-0.204272,0.105215,1,1,0
989,25,-0.546180,-0.057447,-0.183579,0.001466,1,1,0
997,25,-0.488706,-0.001334,-0.196226,0.109063,1,1,0
994,25,-0.552606,-0.014610,-0.305357,0.092460,1,1,0
981,25,-0.646853,0.044662,-0.141385,0.021524,1,1,0
960,25,-0.617615,0.019876,-0.124365,0.106398,1,1,0
968,25,-0.546708,0.021991,-0.007060,0.090183,1,1,0
978,25,-0.526937,0.013552,-0.017432,0.043073,1,1,0
982,25,-0.531862,-0.120407,-0.197295,0.089264,1,1,0
984,25,-0.637446,-0.007388,-0.209245,0.052843,1,1,0
987,25,-0.657446,-0.058831,-0.188876,0.067994,1,1,0
966,25,-0.564194,0.023153,-0.062330,0.142767,1,1,0
979,25,-0.608130,0.051421,-0.073356,0.053229,1,1,0
985,25,-0.594128,-0.000354,-0.188886,0.128043,1,1,0
963,25,-0.603895,0.008073,0.002523,0.142049,1,1,0
980,25,-0.571241,0.011094,-0.138170,0.075721,1,1,0
972,25,-0.584165,0.030934,-0.049921,0.052418,1,1,0
988,25,-0.635342,0.007463,-0.232285,0.054943,1,1,0
974,25,-0.661372,0.029561,-0.078483,-0.000877,1,1,0
992,25,-0.599418,-0.065492,-0.131007,0.036853,1,1,0
967,25,-0.625115,0.067346,0.000259,0.144743,1,1,0
961,25,-0.611577,-0.043667,-0.085343,0.127842,1,1,0
991,25,-0.478221,0.056094,-0.141347,0.007579,1,1,0
962,25,-0.575572,0.024843,-0.146338,0.016349,1,1,0
998,25,-0.543794,-0.006271,-0.232145,0.012598,1,1,0
975,25,-0.634880,-0.082076,-0.029419,-0.007037,1,1,0
964,25,-0.616735,-0.019674,-0.071213,0.051791,1,1,0
970,25,-0.565496,0.034738,-0.101094,0.001992,1,1,0
971,25,-0.691745,-0.001339,-0.116539,0.066049,1,1,0
999,25,-0.582809,-0.014460,-0.124619,0.065162,1,1,0
976,25,-0.604181,0.012725,-0.103294,0.005535,1,1,0
969,25,-0.667530,0.032634,-0.004147,0.118390,1,1,0
986,25,-0.593052,-0.040464,-0.204141,0.037218,1,1,0
973,25,-0.599067,-0.033362,-0.003223,0.066409,1,1,0
993,25,-0.655664,-0.025209,-0.136416,0.085141,1,1,0
1009,26,-0.577375,0.082969,-0.071562,0.022635,1,1,0
1035,26,-0.572936,-0.074076,-0.192088,0.085620,1,1,0
1033,26,-0.611976,-0.041332,-0.170587,0.019072,1,1,0
1037,26,-0.585271,-0.051494,-0.275151,0.017838,1,1,0
1017,26,-0.525531,-0.061905,-0.089287,0.109659,1,1,0
1026,26,-0.683919,0.018947,-0.111700,0.074842,1,1,0
1001,26,-0.658273,0.010350,-0.083797,0.075604,1,1,0
1003,26,-0.588996,-0.063353,0.004148,0.092521,1,1,0
1013,26,-0.533633,-0.037361,-0.008740,-0.046415,1,1,0
1032,26,-0.550105,-0.030827,-0.098056,0.150665,1,1,0
1006,26,-0.551661,0.036709,-0.050853,0.079774,1,1,0
1008,26,-0.674736,0.017667,-0.156901,0.176626,1,1,0
1015,26,-0.547442,0.006534,-0.048563,0.003436,1,1,0
1014,26,-0.612788,-0.009530,-0.058272,0.083762,1,1,0
1000,26,-0.598647,0.044659,-0.108662,0.064449,1,1,0
1025,26,-0.525757,-0.013831,-0.168557,0.049524,1,1,0
1022,26,-0.579389,-0.007711,-0.168390,0.069763,1,1,0
1036,26,-0.586112,-0.038362,-0.173996,0.138540,1,1,0
1007,26,-0.623160,-0.080333,-0.091085,0.089937,1,1,0
1016,26,-0.558617,0.004235,-0.029708,-0.007252,1,1,0
1039,26,-0.552397,-0.015231,-0.185139,0.087321,1,1,0
1038,26,-0.601856,-0.078689,-0.158387,0.087388,1,1,0
1021,26,-0.635766,-0.039717,-0.125868,0.051955,1,1,0
1029,26,-0.606458,-0.049807,-0.186944,0.011842,1,1,0
1018,26,-0.629883,-0.039535,-0.072652,0.007637,1,1,0
1027,26,-0.609552,-0.052070,-0.140102,0.081406,1,1,0
1031,26,-0.525686,0.047859,-0.231090,-0.014366,1,1,0
1011,26,-0.620047,-0.000797,-0.082023,0.046667,1,1,0
1020,26,-0.677515,-0.066237,-0.220411,0.063077,1,1,0
1028,26,-0.638250,-0.012516,-0.204229,0.015670,1,1,0
1005,26,-0.592432,0.002709,-0.072948,0.114270,1,1,0
1030,26,-0.556265,0.041019,-0.133717,0.081868,1,1,0
1024,26,-0.529334,0.003620,-0.181606,0.095691,1,1,0
1019,26,-0.592195,0.019806,0.017106,0.072929,1,1,0
1002,26,-0.568624,-0.048489,0.001032,0.053444,1,1,0
1004,26,-0.619648,0.066121,0.038918,0.029100,1,1,0
1023,26,-0.493557,-0.017072,-0.182862,0.072864,1,1,0
1012,26,-0.586078,-0.140209,-0.022620,0.111219,1,1,0
1034,26,-0.536453,0.010951,-0.183033,0.027427,1,1,0
1010,26,-0.582085,-0.022600,-0.074860,0.102581,1,1,0
1067,27,-0.644550,-0.030153,-0.182704,-0.004828,1,1,0
1050,27,-0.607270,-0.035359,-0.060084,0.132027,1,1,0
1052,27,-0.673156,0.085455,-0.138881,0.002808,1,1,0
1062,27,-0.598700,0.020879,-0.143421,-0.065530,1,1,0
1051,27,-0.569992,-0.056278,-0.038870,0.095886,1,1,0
1058,27,-0.681469,-0.057216,-0.000778,0.047491,1,1,0
1074,27,-0.622922,-0.044534,-0.189936,0.047002,1,1,0
1048,27,-0.642314,-0.008271,-0.004162,0.069868,1,1,0
1077,27,-0.650038,0.005183,-0.151705,-0.054242,1,1,0
1057,27,-0.693599,-0.029125,-0.031829,0.070601,1,1,0
1065,27,-0.565362,-0.073419,-0.080865,-0.069364,1,1,0
1063,27,-0.576179,-0.003994,-0.189232,-0.046606,1,1,0
1076,27,-0.618886,-0.079757,-0.065753,-0.011498,1,1,0
1060,27,-0.662541,0.016188,-0.161577,0.004052,1,1,0
1079,27,-0.563228,-0.008046,-0.080496,-0.021473,1,1,0
1053,27,-0.616339,-0.060032,0.050975,0.086006,1,1,0
1055,27,-0.585537,0.010381,-0.033109,0.067311,1,1,0
1040,27,-0.619572,-0.027923,-0.003269,0.046576,1,1,0
1070,27,-0.557550,0.020757,-0.125391,-0.029823,1,1,0
1043,27,-0.622846,0.021383,-0.003365,0.030533,1,1,0
1041,27,-0.652171,0.067578,-0.087745,0.075431,1,1,0
1042,27,-0.579947,-0.003455,0.085639,-0.010654,1,1,0
1064,27,-0.584817,-0.000473,-0.162204,-0.082861,1,1,0
1069,27,-0.581095,-0.039419,-0.179590,-0.090536,1,1,0
1044,27,-0.618499,-0.043663,-0.066121,0.062590,1,1,0
1066,27,-0.624555,-0.044357,-0.184494,0.051588,1,1,0
1075,27,-0.624278,-0.056945,-0.051266,-0.034459,1,1,0
1072,27,-0.591276,0.004382,-0.168077,-0.019329,1,1,0
1047,27,-0.591589,0.093099,-0.090284,0.043889,1,1,0
1049,27,-0.557449,0.020989,-0.095026,0.045945,1,1,0
1045,27,-0.643015,0.006770,-0.115041,-0.004803,1,1,0
1054,27,-0.543014,-0.051310,-0.075665,0.107456,1,1,0
1073,27,-0.630406,-0.009210,-0.175353,-0.041671,1,1,0
1071,27,-0.563786,-0.046017,-0.164592,0.110489,1,1,0
1059,27,-0.635924,-0.000439,-0.055153,0.081891,1,1,0
1061,27,-0.617841,-0.038244,-0.188473,-0.036785,1,1,0
1068,27,-0.678122,-0.065402,-0.119062,-0.064572,1,1,0
1056,27,-0.692285,0.005283,-0.091808,0.032705,1,1,0
1078,27,-0.672424,0.040011,-0.133671,0.024722,1,1,0
1046,27,-0.486209,0.025820,0.008776,0.082467,1,1,0
1085,28,-0.535142,-0.029807,-0.103418,0.036076,1,1,0
1112,28,-0.559517,-0.006025,-0.203181,-0.001302,1,1,0
1119,28,-0.613892,-0.059637,-0.170781,-0.072294,1,1,0
1099,28,-0.620621,0.059910,-0.136622,0.026828,1,1,0
1087,28,-0.534417,-0.009376,-0.004027,0.101619,1,1,0
1081,28,-0.617290,-0.021787,-0.143126,0.061020,1,1,0
1091,28,-0.623828,0.022597,-0.043511,0.050664,1,1,0
1101,28,-0.597567,0.037036,-0.162757,0.037196,1,1,0
1096,28,-0.622624,-0.057251,-0.113847,0.093390,1,1,0
1117,28,-0.564762,-0.085817,-0.009073,-0.060479,1,1,0
1102,28,-0.589619,-0.055572,-0.122637,-0.032333,1,1,0
1094,28,-0.567699,-0.006565,-0.014323,0.039419,1,1,0
1105,28,-0.628266,0.033969,-0.119130,-0.031940,1,1,0
1106,28,-0.703642,-0.100552,-0.179186,-0.053687,1,1,0
1090,28,-0.568915,0.013904,-0.068037,0.082512,1,1,0
1103,28,-0.683833,-0.002446,-0.142609,-0.009879,1,1,0
1104,28,-0.574089,-0.022490,-0.125674,-0.061909,1,1,0
1114,28,-0.588904,-0.040188,-0.261220,0.026166,1,1,0
1111,28,-0.679183,-0.022153,-0.015853,0.060890,1,1,0
1093,28,-0.513598,-0.048282,-0.120685,0.117806,1,1,0
1118,28,-0.513610,-0.034345,-0.095560,-0.082129,1,1,0
1100,28,-0.582450,-0.118024,-0.215182,0.023569,1,1,0
1084,28,-0.564093,0.048334,0.030382,0.111967,1,1,0
1110,28,-0.483332,-0.026991,-0.090897,0.017597,1,1,0
1109,28,-0.535480,-0.105986,-0.185052,0.102448,1,1,0
1095,28,-0.623488,-0.030619,0.015179,0.024315,1,1,0
1113,28,-0.660650,-0.025730,-0.078559,0.020749,1,1,0
1080,28,-0.623089,0.040044,0.057440,0.137598,1,1,0
1098,28,-0.587818,-0.054471,-0.024465,-0.015090,1,1,0
1097,28,-0.643623,-0.096947,-0.081047,-0.062095,1,1,0
1108,28,-0.702862,-0.031620,-0.177177,-0.005160,1,1,0
1082,28,-0.673936,-0.018896,-0.097663,0.075535,1,1,0
1107,28,-0.549768,0.130985,-0.198396,-0.060452,1,1,0
1092,28,-0.693392,-0.085766,-0.047580,-0.003452,1,1,0
1083,28,-0.567882,0.030915,0.022164,0.061120,1,1,0
1115,28,-0.645338,-0.098536,-0.176561,-0.087497,1,1,0
1116,28,-0.576205,-0.018468,-0.137891,-0.027387,1,1,0
1089,28,-0.591657,0.010426,-0.059351,0.041341,1,1,0
1086,28,-0.528864,0.049040,-0.027268,0.056880,1,1,0
1088,28,-0.590622,-0.001956,-0.040031,0.015543,1,1,0
1155,29,-0.590123,0.024165,-0.022738,0.060075,1,1,0
1128,29,-0.582119,-0.141526,0.014913,0.087510,1,1,0
1141,29,-0.638770,-0.017528,-0.149393,-0.053037,1,1,0
1152,29,-0.517480,-0.098652,-0.173527,-0.070915,1,1,0
1129,29,-0.538185,-0.028257,-0.043120,0.031656,1,1,0
1151,29,-0.611248,-0.004132,-0.121229,-0.121470,1,1,0
1120,29,-0.661478,-0.030791,0.026413,0.031893,1,1,0
1125,29,-0.689054,-0.053854,-0.097808,-0.027231,1,1,0
1149,29,-0.583561,-0.057900,-0.177246,-0.014905,1,1,0
1159,29,-0.662985,-0.035412,-0.197463,-0.060950,1,1,0
1158,29,-0.640640,0.014873,-0.204008,-0.018701,1,1,0
1147,29,-0.492538,-0.118510,-0.108608,0.008990,0,1,0
1150,29,-0.663138,0.035905,-0.115114,0.034189,1,1,0
1126,29,-0.606808,-0.033513,-0.040340,0.156514,1,1,0
1136,29,-0.658697,-0.005694,-0.013035,-0.025312,1,1,0
1122,29,-0.614987,0.067633,0.006145,0.111110,1,1,0
1143,29,-0.619923,0.000120,-0.110892,0.006195,1,1,0
1121,29,-0.631205,-0.035087,-0.054196,0.032969,1,1,0
1138,29,-0.557206,0.085445,0.098392,0.063434,1,1,0
1144,29,-0.574197,0.016798,-0.210371,0.013189,1,1,0
1124,29,-0.491844,0.054793,-0.054107,0.016180,1,1,0
1133,29,-0.563553,0.045001,-0.039873,0.126975,1,1,0
1153,29,-0.535998,-0.061412,-0.183053,0.013943,1,1,0
1132,29,-0.558437,0.019024,-0.036687,0.047799,1,1,0
1127,29,-0.585356,-0.001908,0.001372,0.078965,1,1,0
1134,29,-0.690236,0.055111,-0.112601,0.117574,1,1,0
1146,29,-0.632811,-0.054966,-0.201577,-0.012542,1,1,0
1154,29,-0.590454,-0.031378,-0.223664,0.013857,1,1,0
1139,29,-0.588499,0.084839,-0.074196,0.136698,1,1,0
1123,29,-0.501005,-0.054299,-0.088664,0.136599,1,1,0
1156,29,-0.579835,-0.060760,-0.188674,-0.038434,1,1,0
1157,29,-0.553422,-0.046588,-0.139458,-0.040154,1,1,0
1130,29,-0.568009,0.065315,0.071217,0.010334,1,1,0
1137,29,-0.458622,-0.000633,-0.100984,-0.003986,1,1,0
1145,29,-0.595598,-0.055734,-0.164099,0.000199,1,1,0
1131,29,-0.627252,-0.026283,-0.098108,0.009303,1,1,0
1140,29,-0.612557,-0.060031,-0.187771,0.051010,1,1,0
1142,29,-0.557115,-0.055021,-0.107526,-0.006546,1,1,0
1148,29,-0.656261,0.011360,-0.151749,-0.110709,1,1,0
1135,29,-0.652368,-0.048314,-0.051481,0.014493,1,1,0
1162,30,-0.543463,0.021026,0.103408,-0.108035,1,1,0
1173,30,-0.612334,0.015394,0.100232,-0.178239,1,1,0
1177,30,-0.627964,0.074278,0.153480,-0.146660,1,1,0
1176,30,-0.647992,0.008093,0.053632,-0.116464,1,1,0
1179,30,-0.630130,-0.046316,0.103565,-0.102284,1,1,0
1194,30,-0.557715,-0.082868,-0.062639,-0.085458,1,1,0
1189,30,-0.595002,-0.004003,-0.097834,-0.064522,1,1,0
1183,30,-0.529533,0.009721,-0.088535,0.001435,1,1,0
1172,30,-0.537728,-0.041104,0.136418,-0.097862,1,1,0
1160,30,-0.550385,-0.018630,0.031325,-0.169787,1,1,0
1186,30,-0.649968,-0.006565,-0.097862,-0.058370,1,1,0
1174,30,-0.587745,-0.061910,0.169662,-0.071519,1,1,0
1184,30,-0.632838,-0.046220,-0.161510,-0.035244,1,1,0
1193,30,-0.570651,-0.050233,-0.229341,0.065442,1,1,0
1181,30,-0.538234,-0.042420,-0.220168,-0.016057,1,1,0
1175,30,-0.550625,0.060940,0.053190,-0.144739,1,1,0
1171,30,-0.532275,-0.050326,0.148458,-0.089293,1,1,0
1190,30,-0.591417,-0.055856,-0.173869,0.012562,1,1,0
1163,30,-0.646355,0.003281,0.156609,-0.211108,1,1,0
1161,30,-0.613038,0.032717,0.168327,-0.096395,1,1,0
1166,30,-0.632597,-0.078326,0.172606,-0.146219,1,1,0
1188,30,-0.498519,-0.032163,-0.091184,-0.009527,1,1,0
1169,30,-0.592053,-0.097918,0.163438,-0.116827,1,1,0
1168,30,-0.606632,0.026325,0.151147,-0.133156,1,1,0
1167,30,-0.659760,0.031514,0.116379,-0.204847,1,1,0
1192,30,-0.612950,0.083243,-0.114555,-0.119714,1,1,0
1195,30,-0.610498,-0.003882,-0.101692,0.043557,1,1,0
1164,30,-0.604849,0.042024,0.045169,-0.109115,1,1,0
1180,30,-0.503781,-0.071669,-0.100808,-0.086042,1,1,0
1199,30,-0.602987,-0.082024,-0.208924,0.045988,1,1,0
1185,30,-0.595694,-0.115652,-0.074103,-0.081009,1,1,0
1178,30,-0.743981,0.024532,0.132923,0.037861,1,0,0
1191,30,-0.606232,-0.145661,-0.090107,0.048191,0,1,0
1170,30,-0.583376,0.007778,0.172469,-0.012454,1,1,0
1182,30,-0.581046,-0.013848,-0.188288,-0.005703,1,1,0
1197,30,-0.610393,-0.011018,-0.173966,-0.024633,1,1,0
1198,30,-0.591997,-0.038563,-0.151513,-0.007220,1,1,0
1165,30,-0.601380,0.098210,0.051571,-0.100059,1,1,0
1196,30,-0.611130,-0.070606,-0.141865,-0.091567,1,1,0
1187,30,-0.556867,-0.071599,-0.102108,-0.027414,1,1,0
1234,31,-0.669995,-0.022260,-0.179632,-0.008855,1,1,0
1203,31,-0.510275,-0.107905,0.139329,-0.128383,1,1,0
1226,31,-0.578462,-0.122820,-0.174469,0.002219,1,1,0
1220,31,-0.586350,-0.075344,-0.099438,-0.049463,1,1,0
1230,31,-0.530657,-0.003137,-0.122088,-0.017771,1,1,0
1222,31,-0.584174,-0.042323,-0.113308,-0.057561,1,1,0
1207,31,-0.592778,0.081951,0.160646,-0.063741,1,1,0
1214,31,-0.642079,0.053012,0.056358,-0.173386,1,1,0
1211,31,-0.596331,-0.045262,0.213561,-0.067198,1,1,0
1231,31,-0.554243,-0.081275,-0.147483,-0.005137,1,1,0
1216,31,-0.534009,0.026960,0.049476,-0.174396,1,1,0
1219,31,-0.540708,0.110543,0.128277,-0.106425,1,0,0
1206,31,-0.591185,0.021780,0.218960,-0.087164,1,1,0
1200,31,-0.603664,-0.074326,0.104076,-0.060078,1,1,0
1239,31,-0.531164,-0.027131,-0.281012,0.008913,1,1,0
1208,31,-0.591396,0.011481,0.130439,-0.132162,1,1,0
1224,31,-0.568705,-0.052357,-0.126324,0.027958,1,1,0
1223,31,-0.536047,-0.036304,-0.176426,-0.026476,1,1,0
1209,31,-0.620193,0.016769,0.189540,-0.121125,1,1,0
1217,31,-0.546526,0.130834,0.089601,-0.121009,1,0,0
1213,31,-0.642117,0.035866,0.104653,-0.043969,1,1,0
1229,31,-0.605210,-0.005878,-0.126072,0.084233,1,1,0
1202,31,-0.584503,-0.004860,0.081811,-0.131704,1,1,0
1221,31,-0.534938,-0.022119,-0.205867,-0.076900,1,1,0
1238,31,-0.551285,-0.024988,-0.198393,0.096668,1,1,0
1232,31,-0.645016,-0.048677,-0.129639,-0.013679,1,1,0
1201,31,-0.646391,-0.020119,0.109336,-0.156180,1,1,0
1215,31,-0.665729,0.012083,0.071028,-0.142513,1,1,0
1233,31,-0.553229,0.013258,-0.206779,-0.055468,1,1,0
1235,31,-0.602515,-0.037755,-0.171830,-0.121416,1,1,0
1218,31,-0.517964,-0.036437,0.123598,-0.107814,1,1,0
1228,31,-0.667922,-0.009175,-0.173227,-0.034681,1,1,0
1237,31,-0.630215,-0.023793,-0.084564,0.009973,1,1,0
1236,31,-0.646679,-0.118252,-0.193199,-0.030102,1,1,0
1225,31,-0.584238,-0.123937,-0.246041,0.040122,1,1,0
1204,31,-0.627379,0.055064,0.096180,-0.086323,1,1,0
1212,31,-0.520929,0.141298,0.096266,-0.086992,1,0,0
1227,31,-0.569381,0.044322,-0.183499,0.016135,1,1,0
1210,31,-0.542386,0.001648,0.147891,-0.106248,1,1,0
1205,31,-0.602520,0.092702,0.095742,-0.179661,1,1,0
1248,32,-0.482894,0.049281,0.123604,-0.131118,1,1,0
1240,32,-0.469664,-0.080669,0.093644,-0.138832,1,1,0
1249,32,-0.596692,0.067198,0.152734,-0.112128,1,1,0
1242,32,-0.602009,-0.033352,0.047534,-0.093892,1,1,0
1253,32,-0.523251,0.071520,0.169375,-0.079473,1,1,0
1251,32,-0.558903,0.020330,0.120521,-0.070978,1,1,0
1271,32,-0.643982,0.002642,-0.148296,-0.048791,1,1,0
1259,32,-0.594088,-0.012561,0.152980,-0.039809,1,1,0
1241,32,-0.583547,-0.016596,0.148542,-0.123790,1,1,0
1250,32,-0.563491,0.009290,0.064522,-0.156771,1,1,0
1276,32,-0.567095,0.012009,-0.070406,-0.094424,1,1,0
1278,32,-0.560645,-0.071980,-0.192806,-0.026451,1,1,0
1268,32,-0.616300,-0.017306,-0.132628,-0.187596,1,1,0
1267,32,-0.583320,0.024562,-0.223184,0.072901,1,1,0
1273,32,-0.582087,-0.092199,-0.188752,-0.018134,1,1,0
1269,32,-0.570812,-0.037596,-0.136197,-0.038947,1,1,0
1257,32,-0.618637,-0.015092,0.119627,-0.103450,1,1,0
1264,32,-0.557609,-0.023496,-0.144625,-0.002055,1,1,0
1246,32,-0.613614,0.006074,0.131222,-0.160670,1,1,0
1252,32,-0.641705,-0.061062,0.112042,-0.168110,1,1,0
1244,32,-0.667699,-0.039049,0.117284,-0.138719,1,1,0
1247,32,-0.595912,-0.099760,0.113971,-0.165013,1,1,0
1266,32,-0.576980,-0.055418,-0.247635,0.026267,1,1,0
1279,32,-0.685274,-0.013027,-0.068749,0.008646,1,1,0
1274,32,-0.539310,-0.031120,-0.110011,-0.125976,1,1,0
1261,32,-0.517793,-0.022168,-0.203388,-0.036407,1,1,0
1275,32,-0.592162,-0.070009,-0.147563,0.068655,1,1,0
1245,32,-0.623877,0.090421,0.075345,-0.179010,1,1,0
1277,32,-0.550540,-0.044714,-0.105957,0.004717,1,1,0
1255,32,-0.600547,-0.005094,-0.010380,-0.038481,1,1,0
1262,32,-0.588581,0.058430,-0.093744,-0.018305,1,1,0
1243,32,-0.662328,0.097287,0.124037,-0.141721,1,0,0
1254,32,-0.519355,-0.030020,0.089072,-0.132241,1,1,0
1258,32,-0.662908,0.006671,0.118059,-0.175725,1,1,0
1263,32,-0.560837,-0.116486,-0.085046,0.002946,1,1,0
1270,32,-0.549822,0.068669,-0.183808,0.032005,1,1,0
1265,32,-0.663845,-0.120629,-0.107861,0.047686,1,1,0
1256,32,-0.503964,-0.056685,0.079475,-0.145710,1,1,0
1272,32,-0.655425,-0.063596,-0.105766,-0.081763,1,1,0
1260,32,-0.555746,-0.098273,-0.106378,0.031079,1,1,0
1316,33,-0.507452,-0.018111,-0.112966,-0.046912,1,1,0
1289,33,-0.629944,0.056368,0.176992,-0.052591,1,1,0
1309,33,-0.599625,-0.065525,-0.154949,-0.052008,1,1,0
1311,33,-0.598695,0.005730,-0.143676,-0.085297,1,1,0
1313,33,-0.582643,0.012950,-0.087482,0.020951,1,1,0
1314,33,-0.627310,-0.071790,-0.018574,0.022203,1,1,0
1291,33,-0.567355,0.078980,0.017023,-0.101248,1,1,0
1293,33,-0.672337,0.057130,0.200874,-0.065019,1,1,0
1303,33,-0.598504,0.099265,-0.105201,-0.021430,1,1,0
1288,33,-0.643341,-0.038633,0.192074,-0.143787,1,1,0
1304,33,-0.523241,0.033835,-0.096412,-0.054593,1,1,0
1312,33,-0.610594,0.002120,-0.135689,0.029033,1,1,0
1300,33,-0.553858,-0.070379,-0.168062,-0.073934,1,1,0
1318,33,-0.537813,-0.054428,-0.145076,-0.064816,1,1,0
1287,33,-0.531273,-0.009389,0.185552,-0.126099,1,1,0
1307,33,-0.518943,0.027654,-0.086200,0.063937,1,1,0
1283,33,-0.641489,-0.045674,0.092020,-0.106547,1,1,0
1284,33,-0.578373,-0.013351,0.097657,-0.119476,1,1,0
1281,33,-0.578150,0.030141,0.030135,-0.059123,1,1,0
1286,33,-0.597732,0.057555,0.088497,-0.146433,1,1,0
1308,33,-0.560567,-0.039149,-0.141341,-0.046452,1,1,0
1295,33,-0.569493,0.098195,0.117334,-0.064425,1,1,0
1297,33,-0.600117,-0.038369,0.074744,-0.169811,1,1,0
1299,33,-0.583118,0.029823,0.137400,-0.157186,1,1,0
1310,33,-0.591187,0.015833,-0.134581,-0.023399,1,1,0
1282,33,-0.608957,0.080146,0.171357,-0.098103,1,1,0
1305,33,-0.652486,-0.045457,-0.144376,-0.054701,1,1,0
1317,33,-0.576879,-0.066000,-0.156160,0.048945,1,1,0
1296,33,-0.632790,0.076946,0.031523,-0.057285,1,1,0
1301,33,-0.562436,-0.087556,-0.038889,-0.072225,1,1,0
1319,33,-0.590899,-0.073518,-0.096737,-0.027890,1,1,0
1280,33,-0.669636,0.054354,0.197548,-0.077712,1,1,0
1292,33,-0.548008,-0.004931,0.178249,-0.085347,1,1,0
1285,33,-0.551314,-0.045176,0.133836,-0.042140,1,1,0
1315,33,-0.535177,-0.069057,-0.109543,-0.040577,1,1,0
1294,33,-0.470153,0.030170,0.107260,-0.108288,1,1,0
1290,33,-0.618026,-0.030754,0.169422,-0.078947,1,1,0
1306,33,-0.588172,-0.121390,-0.060255,-0.062942,1,1,0
1302,33,-0.649595,-0.033675,-0.135657,0.026864,1,1,0
1298,33,-0.628134,0.067649,0.102933,-0.156197,1,1,0
1357,34,-0.573559,-0.046765,-0.118106,-0.026110,1,1,0
1345,34,-0.562633,-0.048149,-0.123303,0.052247,1,1,0
1356,34,-0.624260,-0.033096,-0.187890,0.039928,1,1,0
1321,34,-0.589932,-0.001021,0.119013,-0.005296,1,1,0
1334,34,-0.636335,-0.053326,0.175093,-0.177449,1,1,0
1359,34,-0.539200,-0.095971,-0.130588,-0.081582,1,1,0
1354,34,-0.644776,0.004394,-0.124463,-0.040903,1,1,0
1342,34,-0.554337,0.022556,-0.185894,0.059345,1,1,0
1336,34,-0.600502,0.028507,0.141068,-0.063771,1,1,0
1352,34,-0.508268,-0.128578,-0.127606,-0.071605,0,1,0
1326,34,-0.625016,-0.052164,0.137994,-0.078532,1,1,0
1350,34,-0.638453,-0.098560,-0.146034,0.001662,1,1,0
1358,34,-0.594188,-0.035106,-0.140058,0.035293,1,1,0
1344,34,-0.684300,0.056417,-0.142738,-0.045242,1,1,0
1323,34,-0.584971,0.032012,0.167117,-0.108796,1,1,0
1332,34,-0.558009,-0.026079,0.193747,-0.051259,1,1,0
1339,34,-0.608076,-0.050515,0.108655,-0.044213,1,1,0
1328,34,-0.586059,0.041414,0.233293,0.020855,1,1,0
1346,34,-0.558139,0.027400,-0.160466,-0.014625,1,1,0
1327,34,-0.557414,0.045756,0.165873,-0.096658,1,1,0
1343,34,-0.604638,0.062529,-0.098939,0.033647,1,1,0
1341,34,-0.688328,-0.007842,-0.051357,-0.004978,1,1,0
1355,34,-0.584408,-0.020522,-0.172957,0.049359,1,1,0
1335,34,-0.626137,0.060286,0.055019,-0.098981,1,1,0
1347,34,-0.600046,-0.027769,-0.088029,-0.032440,1,1,0
1330,34,-0.592217,-0.061970,0.128772,-0.129924,1,1,0
1322,34,-0.586842,-0.037577,0.072787,-0.056315,1,1,0
1349,34,-0.595270,-0.029980,-0.150918,-0.021700,1,1,0
1337,34,-0.622224,0.032335,0.143033,-0.110659,1,1,0
1353,34,-0.584966,-0.068604,-0.154370,-0.019383,1,1,0
1338,34,-0.609892,0.064059,0.062621,-0.035535,1,1,0
1320,34,-0.631516,-0.028746,0.138131,-0.145895,1,1,0
1348,34,-0.606571,-0.029556,-0.081430,0.031591,1,1,0
1325,34,-0.735439,0.027944,0.174821,-0.053405,1,0,0
1340,34,-0.642988,-0.077413,-0.053923,-0.077056,1,1,0
1331,34,-0.690785,-0.021683,0.029115,-0.119178,1,1,0
1329,34,-0.632174,-0.030753,0.173858,-0.078913,1,1,0
1324,34,-0.619248,-0.047184,0.132170,-0.081122,1,1,0
1333,34,-0.535400,-0.009731,0.005076,-0.098213,1,1,0
1351,34,-0.665987,-0.072776,-0.228675,-0.100873,1,1,0
1379,35,-0.629740,-0.050811,0.146626,-0.062101,1,1,0
1387,35,-0.619177,-0.135708,-0.109667,-0.010860,1,1,0
1373,35,-0.520336,0.016528,0.016387,-0.107516,1,1,0
1388,35,-0.599855,-0.003025,-0.138601,-0.042344,1,1,0
1364,35,-0.584864,0.068161,0.111218,-0.056743,1,1,0
1378,35,-0.643963,0.049128,0.056359,-0.038078,1,1,0
1395,35,-0.605305,-0.006364,-0.154860,-0.005700,1,1,0
1361,35,-0.539923,0.032457,0.131053,-0.156739,1,1,0
1375,35,-0.552663,-0.000471,0.119830,-0.054033,1,1,0
1363,35,-0.614092,-0.006928,0.109600,-0.096550,1,1,0
1399,35,-0.640303,-0.043098,-0.120664,-0.014711,1,1,0
1371,35,-0.619772,-0.018067,0.147031,-0.065735,1,1,0
1389,35,-0.628854,-0.014875,-0.112915,0.030397,1,1,0
1374,35,-0.528099,-0.026443,0.082203,-0.073945,1,1,0
1386,35,-0.599867,-0.022257,-0.200275,-0.032783,1,1,0
1394,35,-0.617207,0.017845,-0.142242,-0.062577,1,1,0
1397,35,-0.579457,0.056571,-0.174005,-0.089343,1,1,0
1384,35,-0.552008,0.014624,-0.162674,-0.042333,1,1,0
1385,35,-0.684409,0.021736,-0.179678,0.005962,1,1,0
1380,35,-0.595935,-0.064860,-0.080065,0.009976,1,1,0
1376,35,-0.658268,0.005372,0.067105,-0.165165,1,1,0
1377,35,-0.532580,0.024434,0.161550,-0.112177,1,1,0
1398,35,-0.515592,-0.111903,-0.116626,-0.148495,1,1,0
1370,35,-0.543766,0.070026,0.107078,-0.127280,1,1,0
1366,35,-0.656241,-0.011239,0.101842,0.007438,1,1,0
1390,35,-0.544679,0.016007,-0.265521,-0.079677,1,1,0
1372,35,-0.616829,0.020995,0.081058,-0.108875,1,1,0
1392,35,-0.584167,-0.109090,-0.263543,0.004300,1,1,0
1368,35,-0.659427,-0.081856,0.215339,-0.076314,1,1,0
1365,35,-0.617814,-0.041372,0.134155,-0.183182,1,1,0
1382,35,-0.552741,-0.056472,-0.194728,-0.081909,1,1,0
1360,35,-0.641307,0.041175,0.076369,-0.112706,1,1,0
1362,35,-0.609787,0.055108,0.097632,-0.122344,1,1,0
1383,35,-0.595039,-0.073466,-0.123767,-0.080763,1,1,0
1396,35,-0.516090,-0.069731,-0.118943,-0.050599,1,1,0
1381,35,-0.586695,0.003292,-0.077767,-0.077092,1,1,0
1391,35,-0.651151,0.063611,-0.166919,-0.023802,1,1,0
1367,35,-0.593477,-0.003540,0.134851,-0.047200,1,1,0
1369,35,-0.580423,0.005549,0.187017,-0.136295,1,1,0
1393,35,-0.552819,-0.014795,-0.149783,-0.028218,1,1,0
1424,36,-0.572423,-0.070068,-0.193273,-0.042313,1,1,0
1411,36,-0.571553,-0.011180,0.171991,-0.002714,1,1,0
1435,36,-0.487740,-0.021187,-0.153666,-0.064099,1,1,0
1414,36,-0.707244,-0.046135,0.096653,-0.048231,1,1,0
1409,36,-0.679401,-0.030752,0.076125,-0.027568,1,1,0
1429,36,-0.533590,-0.050661,-0.131270,0.045176,1,1,0
1407,36,-0.540450,-0.026152,0.181340,-0.143234,1,1,0
1425,36,-0.510217,-0.035042,-0.086145,-0.018377,1,1,0
1423,36,-0.589254,-0.137654,-0.098462,0.033868,1,1,0
1420,36,-0.620214,-0.037120,-0.221442,-0.002701,1,1,0
1421,36,-0.642807,0.102923,-0.117739,-0.034621,1,1,0
1401,36,-0.558257,-0.031944,0.060880,-0.083431,1,1,0
1438,36,-0.497005,-0.117162,-0.065277,0.060453,0,1,0
1404,36,-0.570841,0.012829,0.081873,-0.168926,1,1,0
1434,36,-0.518224,-0.030411,-0.104966,-0.025574,1,1,0
1426,36,-0.609106,-0.066145,-0.101701,-0.104181,1,1,0
1428,36,-0.693210,-0.117087,-0.136821,-0.066377,0,1,0
1408,36,-0.514764,0.072363,0.035648,-0.123259,1,1,0
1410,36,-0.591335,0.002842,-0.014230,-0.171838,1,1,0
1415,36,-0.690611,-0.038579,0.168541,-0.071498,1,1,0
1416,36,-0.548445,-0.055734,0.078401,-0.061271,1,1,0
1430,36,-0.594273,0.023296,-0.143526,-0.072970,1,1,0
1417,36,-0.552671,-0.003688,0.176902,-0.172391,1,1,0
1437,36,-0.529450,0.017391,-0.161940,-0.037521,1,1,0
1432,36,-0.474433,0.075749,-0.169615,-0.008421,1,1,0
1403,36,-0.635392,0.111411,0.177665,-0.047177,1,0,0
1406,36,-0.600527,-0.021091,0.129724,-0.046582,1,1,0
1419,36,-0.658570,0.016229,0.131676,-0.094064,1,1,0
1427,36,-0.627200,-0.027886,-0.096760,0.001984,1,1,0
1439,36,-0.615017,-0.049292,-0.188499,-0.036527,1,1,0
1413,36,-0.616467,0.082397,0.169459,-0.083686,1,1,0
1405,36,-0.574127,-0.021978,0.170097,-0.207563,1,1,0
1418,36,-0.639749,0.027732,0.060532,-0.187769,1,1,0
1436,36,-0.524653,-0.005140,-0.166912,-0.056143,1,1,0
1431,36,-0.612792,0.042445,-0.137959,-0.029059,1,1,0
1422,36,-0.519020,0.022436,-0.155207,-0.067042,1,1,0
1400,36,-0.555948,0.005718,0.164977,-0.139530,1,1,0
1402,36,-0.634254,-0.003476,0.082421,-0.115397,1,1,0
1412,36,-0.639811,0.041283,0.155688,-0.141248,1,1,0
1433,36,-0.650896,0.018710,-0.192525,-0.003096,1,1,0
1472,37,-0.520896,0.083617,-0.252458,-0.045731,1,1,0
1446,37,-0.546227,0.032389,0.192045,-0.150770,1,1,0
1442,37,-0.601728,-0.054640,0.155422,-0.091039,1,1,0
1443,37,-0.572518,0.011587,0.058439,-0.079429,1,1,0
1450,37,-0.535000,-0.017217,0.008306,-0.160412,1,1,0
1463,37,-0.585181,-0.015671,-0.146637,-0.042523,1,1,0
1454,37,-0.551170,-0.015774,0.094846,-0.134783,1,1,0
1474,37,-0.656220,-0.035102,-0.100090,0.057501,1,1,0
1465,37,-0.552954,-0.069517,-0.231543,0.001663,1,1,0
1475,37,-0.576179,-0.019543,-0.193347,-0.036812,1,1,0
1460,37,-0.599014,-0.007109,-0.187895,-0.048307,1,1,0
1469,37,-0.603095,-0.060157,-0.165936,0.041959,1,1,0
1459,37,-0.637604,0.035910,0.146112,-0.136140,1,1,0
1477,37,-0.556508,-0.056479,-0.142624,-0.004542,1,1,0
1452,37,-0.605823,0.112559,0.016391,-0.097995,1,1,0
1453,37,-0.648703,0.015811,0.094117,-0.041803,1,1,0
1462,37,-0.557031,-0.107852,-0.050171,-0.065759,1,1,0
1468,37,-0.555894,-0.122389,-0.075240,0.008446,1,1,0
1464,37,-0.571687,0.008493,-0.247669,-0.007894,1,1,0
1447,37,-0.628301,0.011278,0.155731,-0.096635,1,1,0
1467,37,-0.647169,-0.092394,-0.188622,-0.104154,1,1,0
1470,37,-0.664704,-0.116638,-0.160089,-0.085539,1,1,0
1456,37,-0.595429,-0.071894,0.042889,-0.108582,1,1,0
1441,37,-0.616652,0.014732,0.136124,-0.090000,1,1,0
1451,37,-0.605084,-0.052870,0.145914,-0.143114,1,1,0
1458,37,-0.628856,-0.045975,0.046014,-0.044178,1,1,0
1478,37,-0.537829,-0.002501,-0.053291,-0.026410,1,1,0
1466,37,-0.584966,-0.017679,-0.151038,0.044269,1,1,0
1479,37,-0.569344,-0.083924,-0.217093,0.009542,1,1,0
1455,37,-0.555284,0.040359,0.113744,-0.177404,1,1,0
1471,37,-0.587780,0.010279,-0.099508,-0.023237,1,1,0
1448,37,-0.675036,-0.048153,0.158512,-0.124151,1,1,0
1473,37,-0.504328,-0.004716,-0.184429,0.051627,1,1,0
1444,37,-0.618762,0.045867,0.158710,-0.139469,1,1,0
1457,37,-0.612392,0.027762,0.143847,-0.048381,1,1,0
1476,37,-0.628303,-0.054855,-0.090593,-0.046174,1,1,0
1445,37,-0.566002,0.121608,0.144967,-0.121811,1,0,0
1449,37,-0.685431,0.031006,0.126552,-0.149486,1,1,0
1461,37,-0.507775,0.026989,-0.218393,-0.033906,1,1,0
1440,37,-0.622461,0.034281,0.109371,-0.113596,1,1,0
1510,38,-0.526714,0.022701,-0.097583,-0.066156,1,1,0
1487,38,-0.549822,-0.023396,0.201368,0.010136,1,1,0
1483,38,-0.601072,0.071137,0.171965,-0.139105,1,1,0
1499,38,-0.547312,0.070467,0.110715,-0.198187,1,1,0
1489,38,-0.568038,-0.114245,0.049295,-0.208865,1,1,0
1519,38,-0.588505,0.034378,-0.208334,0.027170,1,1,0
1495,38,-0.595719,0.100698,0.181073,-0.139030,1,1,0
1492,38,-0.533667,0.048860,0.113608,-0.108874,1,1,0
1515,38,-0.595787,-0.031766,-0.129887,0.050169,1,1,0
1498,38,-0.578787,0.039268,0.095198,-0.122756,1,1,0
1490,38,-0.587470,-0.005992,0.174680,-0.096123,1,1,0
1486,38,-0.594215,0.018708,-0.003667,-0.144056,1,1,0
1518,38,-0.541559,-0.128154,-0.146688,-0.097395,1,1,0
1512,38,-0.592288,-0.075640,-0.131496,-0.021448,1,1,0
1502,38,-0.658845,0.000600,-0.116035,0.021747,1,1,0
1505,38,-0.585630,-0.123380,-0.079552,0.020807,1,1,0
1513,38,-0.583447,-0.021595,-0.145230,-0.054327,1,1,0
1484,38,-0.539892,0.099044,0.079966,-0.130531,1,1,0
1511,38,-0.554657,-0.041074,-0.229029,-0.066045,1,1,0
1488,38,-0.631079,-0.061513,0.056908,-0.102851,1,1,0
1501,38,-0.559506,-0.065620,-0.192853,-0.013005,1,1,0
1508,38,-0.656912,-0.079689,-0.134303,-0.011685,1,1,0
1509,38,-0.549197,0.013697,-0.092272,-0.046359,1,1,0
1500,38,-0.613214,-0.042721,-0.234318,-0.041568,1,1,0
1481,38,-0.604490,0.100175,0.094651,-0.139679,1,1,0
1491,38,-0.582643,0.006465,0.138152,-0.092058,1,1,0
1504,38,-0.572082,-0.038199,-0.158642,-0.041297,1,1,0
1514,38,-0.636066,-0.111241,-0.201664,-0.038977,1,1,0
1494,38,-0.605936,-0.014660,0.070491,-0.196975,1,1,0
1497,38,-0.597251,0.061882,0.078346,-0.055723,1,1,0
1485,38,-0.597445,-0.022273,0.118637,-0.119357,1,1,0
1503,38,-0.669222,-0.087825,-0.130352,0.034526,1,1,0
1496,38,-0.620995,0.006934,0.215879,-0.103710,1,1,0
1516,38,-0.584289,0.020274,-0.027397,-0.055410,1,1,0
1480,38,-0.532439,0.004690,0.129003,-0.099060,1,1,0
1517,38,-0.557083,-0.020108,-0.150457,0.020590,1,1,0
1493,38,-0.559369,-0.017040,0.128636,-0.038011,1,1,0
1482,38,-0.513722,0.025916,0.055551,-0.088599,1,1,0
1507,38,-0.650555,0.024579,-0.114656,0.024499,1,1,0
1506,38,-0.575124,-0.006498,-0.168913,-0.124794,1,1,0
1544,39,-0.544025,-0.059488,-0.133761,-0.047865,1,1,0
1528,39,-0.471557,0.010585,0.184708,-0.084485,1,1,0
1540,39,-0.590066,-0.042704,-0.180896,-0.068480,1,1,0
1551,39,-0.644961,-0.027881,-0.212543,0.023452,1,1,0
1524,39,-0.529563,-0.028690,0.100425,-0.084204,1,1,0
1527,39,-0.605693,-0.003973,0.099947,-0.066634,1,1,0
1541,39,-0.610195,0.089666,-0.203912,0.039028,1,1,0
1525,39,-0.525519,0.024934,0.151981,-0.089228,1,1,0
1550,39,-0.564762,-0.029452,-0.028679,-0.015409,1,1,0
1547,39,-0.571696,-0.068953,-0.151600,-0.078622,1,1,0
1522,39,-0.636668,0.047679,0.122957,-0.155124,1,1,0
1535,39,-0.614927,-0.000392,0.127207,-0.125805,1,1,0
1558,39,-0.619011,0.017084,-0.083524,-0.063056,1,1,0
1552,39,-0.639361,-0.075635,-0.101121,-0.109278,1,1,0
1545,39,-0.603940,0.004267,-0.130691,-0.022478,1,1,0
1539,39,-0.638347,0.011815,0.048779,-0.176536,1,1,0
1532,39,-0.562568,0.015796,0.065044,-0.168787,1,1,0
1523,39,-0.608436,-0.078734,0.055581,-0.085820,1,1,0
1557,39,-0.623084,-0.042610,-0.116760,0.105300,1,1,0
1521,39,-0.592556,0.053258,0.197134,-0.060036,1,1,0
1520,39,-0.617481,0.041299,0.132430,-0.109335,1,1,0
1536,39,-0.549746,-0.061539,0.074994,-0.095004,1,1,0
1534,39,-0.593546,-0.010353,0.068613,-0.123383,1,1,0
1556,39,-0.521314,-0.048232,-0.207537,0.049546,1,1,0
1529,39,-0.684857,-0.005433,0.091476,-0.081359,1,1,0
1546,39,-0.641344,-0.036275,-0.093710,-0.004599,1,1,0
1526,39,-0.555873,-0.046819,0.157721,-0.111062,1,1,0
1533,39,-0.577046,-0.030275,0.125094,-0.135721,1,1,0
1543,39,-0.620051,-0.023332,-0.197836,-0.058801,1,1,0
1553,39,-0.575841,-0.020784,-0.208551,-0.053003,1,1,0
1542,39,-0.509907,-0.061858,-0.128796,0.034245,1,1,0
1530,39,-0.576382,-0.003982,0.156403,-0.093837,1,1,0
1549,39,-0.533611,-0.105602,-0.163089,-0.042361,1,1,0
1538,39,-0.643742,0.028697,0.111190,-0.111392,1,1,0
1548,39,-0.524226,-0.039499,-0.161334,-0.044725,1,1,0
1555,39,-0.572328,-0.016319,-0.138010,-0.087501,1,1,0
1554,39,-0.603823,-0.090365,-0.209334,-0.103729,1,1,0
1559,39,-0.575011,-0.041849,-0.124266,-0.067644,1,1,0
1531,39,-0.371407,0.043485,0.030176,-0.116756,1,0,0
1537,39,-0.655142,0.034733,0.157892,-0.072463,1,1,0
1570,40,-0.536744,-0.084934,0.203715,-0.098251,1,1,0
1569,40,-0.625683,-0.027648,0.007163,-0.083351,1,1,0
1577,40,-0.649794,0.070586,0.064659,-0.115350,1,1,0
1592,40,-0.612936,-0.024389,-0.072229,0.039615,1,1,0
1586,40,-0.607296,-0.074115,-0.124899,-0.011970,1,1,0
1588,40,-0.567266,-0.039143,-0.064213,0.105214,1,1,0
1580,40,-0.541335,0.020428,-0.161741,-0.091853,1,1,0
1564,40,-0.607625,0.001308,0.107530,-0.073886,1,1,0
1597,40,-0.651244,-0.069819,-0.131603,-0.044428,1,1,0
1565,40,-0.537688,0.023048,0.088418,-0.029009,1,1,0
1567,40,-0.577481,-0.049350,0.193903,-0.129344,1,1,0
1575,40,-0.588350,0.123061,0.075141,-0.156186,1,0,0
1581,40,-0.611820,-0.087880,-0.178997,0.002841,1,1,0
1572,40,-0.588578,0.003812,0.164682,-0.137086,1,1,0
1560,40,-0.524764,-0.001160,0.052194,-0.072216,1,1,0
1589,40,-0.573403,-0.047028,-0.100567,0.024260,1,1,0
1561,40,-0.595478,-0.033658,0.075078,-0.118428,1,1,0
1578,40,-0.624793,0.033587,0.182852,-0.124827,1,1,0
1571,40,-0.611173,0.053429,0.157934,-0.108629,1,1,0
1579,40,-0.549895,-0.067816,0.136410,-0.127369,1,1,0
1574,40,-0.620381,0.001603,0.090061,-0.138533,1,1,0
1599,40,-0.554395,-0.083350,-0.120886,-0.011296,1,1,0
1584,40,-0.496125,-0.078192,-0.131584,-0.095336,1,1,0
1563,40,-0.550741,0.073609,0.141440,-0.071180,1,1,0
1594,40,-0.575525,-0.028173,-0.057353,-0.020393,1,1,0
1585,40,-0.556231,0.054494,-0.113123,0.041145,1,1,0
1595,40,-0.579134,0.017904,-0.193820,-0.036675,1,1,0
1583,40,-0.539499,-0.031695,-0.060944,0.041953,1,1,0
1562,40,-0.661929,-0.125031,0.058749,-0.044852,1,1,0
1576,40,-0.489476,0.102997,0.044127,-0.200565,1,0,0
1566,40,-0.560399,0.051178,0.117815,-0.175039,1,1,0
1593,40,-0.578153,-0.047760,-0.159983,0.014954,1,1,0
1587,40,-0.598771,-0.047778,-0.132017,0.080639,1,1,0
1591,40,-0.637787,0.058670,-0.112605,0.034377,1,1,0
1596,40,-0.629788,-0.030753,-0.142717,0.013931,1,1,0
1598,40,-0.592422,0.016029,-0.094612,0.006685,1,1,0
1582,40,-0.614992,0.056274,-0.126644,-0.036007,1,1,0
1590,40,-0.572230,-0.112707,-0.056650,0.005960,1,1,0
1573,40,-0.592244,-0.064078,0.087472,-0.145910,1,1,0
1568,40,-0.591103,0.057157,0.138045,-0.075289,1,1,0
1627,41,-0.618224,-0.035093,-0.133263,-0.108500,1,1,0
1602,41,-0.539808,0.019720,0.016156,-0.123518,1,1,0
1607,41,-0.586035,-0.047283,0.051429,-0.127812,1,1,0
1616,41,-0.500201,-0.054244,-0.004325,-0.111267,1,1,0
1623,41,-0.594189,-0.035920,-0.121756,0.004158,1,1,0
1635,41,-0.587415,-0.055353,-0.065674,-0.090323,1,1,0
1632,41,-0.546935,0.106617,-0.093297,-0.046580,1,1,0
1619,41,-0.558343,-0.035167,0.015000,-0.114541,1,1,0
1625,41,-0.572183,-0.023143,-0.121999,0.021234,1,1,0
1637,41,-0.478599,-0.012228,-0.221529,0.053462,1,1,0
1610,41,-0.618070,0.004357,0.209951,-0.196757,1,1,0
1614,41,-0.507652,-0.033813,0.099017,-0.111783,1,1,0
1639,41,-0.560804,0.014278,-0.144954,0.011547,1,1,0
1603,41,-0.613886,0.023987,0.068646,-0.073634,1,1,0
1605,41,-0.668843,-0.059517,0.023212,-0.026844,1,1,0
1608,41,-0.561702,-0.043138,0.136146,-0.007631,1,1,0
1615,41,-0.621344,0.008705,0.176340,-0.123713,1,1,0
1618,41,-0.590768,-0.007363,0.198063,-0.087268,1,1,0
1601,41,-0.608202,0.043476,0.152195,-0.061960,1,1,0
1630,41,-0.649140,0.002414,-0.212442,-0.046610,1,1,0
1631,41,-0.552645,-0.045342,-0.152502,-0.028453,1,1,0
1606,41,-0.530267,0.093306,0.117961,-0.045346,1,1,0
1620,41,-0.569475,0.015973,-0.208225,-0.004653,1,1,0
1633,41,-0.611985,0.033805,-0.163903,0.030564,1,1,0
1634,41,-0.616941,-0.061760,-0.099980,-0.028259,1,1,0
1629,41,-0.616536,-0.042314,-0.172484,-0.031125,1,1,0
1600,41,-0.652158,0.033528,0.085771,-0.114014,1,1,0
1617,41,-0.588545,-0.003463,0.077233,-0.080127,1,1,0
1636,41,-0.541115,-0.040405,-0.137008,0.075593,1,1,0
1624,41,-0.566732,-0.054967,-0.060815,0.037873,1,1,0
1622,41,-0.623576,-0.084973,-0.235469,-0.045569,1,1,0
1609,41,-0.624400,-0.074040,0.189727,-0.067549,1,1,0
1612,41,-0.597532,0.042791,0.183091,-0.114271,1,1,0
1604,41,-0.566703,0.067790,0.050263,-0.001070,1,1,0
1613,41,-0.525905,-0.032012,0.088623,-0.129181,1,1,0
1638,41,-0.598572,0.004865,-0.087119,-0.009522,1,1,0
1626,41,-0.632037,-0.110747,-0.195212,0.008013,1,1,0
1628,41,-0.532233,0.056544,-0.244132,0.049665,1,1,0
1621,41,-0.606486,0.018078,-0.152011,-0.019829,1,1,0
1611,41,-0.635423,0.142892,0.008168,-0.087040,1,0,0
1678,42,-0.605151,-0.058313,-0.119042,-0.033822,1,1,0
1664,42,-0.632468,-0.042307,0.012343,-0.072849,1,1,0
1649,42,-0.687074,-0.002106,0.150066,-0.064234,1,1,0
1648,42,-0.693057,-0.066391,0.173287,-0.190704,1,1,0
1671,42,-0.649811,-0.090254,-0.071392,-0.150609,1,1,0
1641,42,-0.582813,0.051364,0.126411,-0.033963,1,1,0
1654,42,-0.626001,0.112529,0.124562,-0.175972,1,1,0
1660,42,-0.567832,0.022914,-0.070819,-0.015505,1,1,0
1640,42,-0.664764,0.078772,0.116119,-0.081139,1,1,0
1677,42,-0.573043,-0.040243,-0.201080,-0.026330,1,1,0
1674,42,-0.643512,0.024143,-0.100943,0.046075,1,1,0
1663,42,-0.534545,-0.012928,-0.168487,-0.003199,1,1,0
1667,42,-0.508165,-0.013296,-0.128079,0.061916,1,1,0
1679,42,-0.514414,-0.046764,-0.267762,-0.039104,1,1,0
1642,42,-0.542262,-0.001625,0.125373,-0.058763,1,1,0
1669,42,-0.678671,-0.046423,-0.043207,0.007792,1,1,0
1651,42,-0.592119,-0.055859,0.133883,-0.141181,1,1,0
1675,42,-0.641537,-0.062164,-0.148137,0.019639,1,1,0
1653,42,-0.506826,-0.069844,0.154270,-0.103642,1,1,0
1643,42,-0.635598,-0.005944,0.067849,-0.052404,1,1,0
1670,42,-0.520516,-0.039549,-0.113466,-0.103932,1,1,0
1659,42,-0.585269,0.053440,0.136067,-0.064697,1,1,0
1645,42,-0.592918,0.072379,0.136894,-0.065204,1,1,0
1647,42,-0.559492,0.016904,0.045268,-0.109179,1,1,0
1652,42,-0.563222,-0.056953,0.142357,-0.096703,1,1,0
1650,42,-0.567679,0.021449,0.161972,-0.111278,1,1,0
1655,42,-0.664499,-0.041572,0.143943,-0.061759,1,1,0
1666,42,-0.563068,-0.016190,-0.100066,-0.003484,1,1,0
1672,42,-0.520700,-0.052705,-0.121057,-0.061465,1,1,0
1676,42,-0.590996,-0.012302,-0.177915,-0.038724,1,1,0
1656,42,-0.638970,0.053145,0.216775,-0.146654,1,1,0
1644,42,-0.674310,0.052031,0.176059,-0.112447,1,1,0
1657,42,-0.515594,0.065727,0.169963,-0.050400,1,1,0
1662,42,-0.557548,-0.066376,-0.136134,-0.027713,1,1,0
1658,42,-0.532822,0.023548,0.080226,-0.082905,1,1,0
1661,42,-0.574499,0.008045,-0.115786,-0.037681,1,1,0
1646,42,-0.658347,0.017993,0.071069,-0.060385,1,1,0
1665,42,-0.730188,0.002473,-0.130497,-0.044350,1,1,0
1673,42,-0.585732,-0.026807,-0.130348,-0.064243,1,1,0
1668,42,-0.622605,-0.075750,-0.103371,0.002596,1,1,0
1682,43,-0.508174,-0.009343,0.055880,-0.107327,1,1,0
1689,43,-0.596077,-0.035255,0.088778,-0.108933,1,1,0
1683,43,-0.629627,0.041802,0.158023,-0.053783,1,1,0
1717,43,-0.618544,-0.038387,-0.136151,-0.072479,1,1,0
1711,43,-0.624372,0.037726,-0.173682,-0.039402,1,1,0
1684,43,-0.576906,0.000994,0.114139,-0.123917,1,1,0
1686,43,-0.609919,-0.019620,0.128028,-0.134912,1,1,0
1685,43,-0.524997,0.029440,0.093460,-0.057308,1,1,0
1709,43,-0.594731,0.018737,-0.121056,0.003190,1,1,0
1692,43,-0.576161,0.001082,0.175470,-0.105781,1,1,0
1712,43,-0.718817,-0.034484,-0.106620,0.058305,1,1,0
1681,43,-0.604029,-0.028757,0.083430,-0.028995,1,1,0
1702,43,-0.633109,-0.013518,-0.150614,-0.015178,1,1,0
1719,43,-0.474659,-0.028330,-0.156112,0.010659,1,1,0
1707,43,-0.512764,-0.036143,-0.157606,0.010964,1,1,0
1705,43,-0.589169,-0.074037,-0.191794,-0.002377,1,1,0
1699,43,-0.608435,-0.065512,0.160622,0.003689,1,1,0
1713,43,-0.567578,-0.047278,-0.115804,-0.012747,1,1,0
1694,43,-0.536348,-0.013705,0.190476,-0.168429,1,1,0
1700,43,-0.619476,-0.064617,-0.149348,-0.054079,1,1,0
1710,43,-0.492649,-0.053855,-0.072904,-0.069209,1,1,0
1690,43,-0.532517,0.021958,0.127239,-0.153445,1,1,0
1698,43,-0.599727,-0.014137,0.086576,-0.167751,1,1,0
1703,43,-0.655130,-0.007905,-0.170785,0.022693,1,1,0
1716,43,-0.684447,-0.020600,-0.092486,-0.022629,1,1,0
1697,43,-0.544222,0.088653,0.142296,-0.163046,1,1,0
1688,43,-0.644837,0.048664,0.160964,-0.127794,1,1,0
1706,43,-0.592145,-0.040940,-0.090621,-0.030031,1,1,0
1715,43,-0.489907,-0.040489,-0.130233,-0.134132,1,1,0
1696,43,-0.600953,-0.018206,0.242596,-0.095546,1,1,0
1708,43,-0.556641,-0.062489,-0.082707,-0.102160,1,1,0
1704,43,-0.586022,0.029203,-0.134012,0.030303,1,1,0
1680,43,-0.527295,0.014308,0.170002,-0.142460,1,1,0
1714,43,-0.538400,0.014317,-0.127532,-0.001777,1,1,0
1687,43,-0.499787,0.080832,0.105395,-0.162394,1,1,0
1718,43,-0.511401,0.010719,-0.161004,-0.056611,1,1,0
1701,43,-0.586645,-0.104431,-0.114897,-0.044396,1,1,0
1693,43,-0.590103,0.075807,0.129013,-0.092029,1,1,0
1691,43,-0.564091,0.051170,0.073850,-0.144496,1,1,0
1695,43,-0.578946,0.060308,0.138130,-0.154088,1,1,0
1742,44,-0.565700,-0.022677,0.025781,0.122004,1,1,0
1746,44,-0.534056,-0.019311,-0.078842,0.086007,1,1,0
1730,44,-0.622653,0.010155,0.192688,-0.126847,1,1,0
1750,44,-0.577601,0.000761,-0.046963,0.063185,1,1,0
1738,44,-0.607456,-0.031164,0.108243,-0.054325,1,1,0
1757,44,-0.639688,-0.042497,-0.046612,0.044968,1,1,0
1749,44,-0.558119,0.030753,-0.042778,0.076414,1,1,0
1745,44,-0.710258,0.013783,-0.081387,0.153563,1,1,0
1739,44,-0.622284,0.053462,0.150720,-0.087915,1,1,0
1743,44,-0.541436,-0.049719,-0.076215,0.155858,1,1,0
1724,44,-0.626933,0.093076,-0.006030,-0.108052,1,1,0
1758,44,-0.590241,-0.051496,-0.082466,0.101789,1,1,0
1744,44,-0.551101,0.088104,0.001019,0.100480,1,1,0
1741,44,-0.560862,0.013353,-0.054584,0.032760,1,1,0
1729,44,-0.544083,-0.086727,0.140111,-0.180070,1,1,0
1752,44,-0.631838,-0.031461,-0.069179,0.124836,1,1,0
1734,44,-0.534444,0.138708,0.091186,-0.108549,1,0,0
1720,44,-0.584454,0.066402,0.134892,-0.143095,1,1,0
1755,44,-0.622585,-0.023555,-0.098117,0.043743,1,1,0
1754,44,-0.619583,-0.086235,-0.047844,0.080977,1,1,0
1723,44,-0.661911,-0.009229,0.066339,-0.115696,1,1,0
1751,44,-0.516241,-0.079246,-0.165830,0.050887,1,1,0
1737,44,-0.543576,-0.031363,0.129323,-0.108685,1,1,0
1753,44,-0.628466,-0.072380,-0.101219,0.073413,1,1,0
1759,44,-0.493263,-0.037827,-0.150786,0.051804,1,1,0
1728,44,-0.611824,-0.001356,0.167229,-0.045587,1,1,0
1733,44,-0.691609,0.063624,0.067944,-0.173592,1,1,0
1726,44,-0.612556,0.030275,0.015993,-0.076396,1,1,0
1740,44,-0.585926,-0.004060,-0.093550,0.055632,1,1,0
1756,44,-0.553249,-0.063902,-0.056436,0.054030,1,1,0
1748,44,-0.526568,0.076348,-0.025815,0.063551,1,1,0
1727,44,-0.680944,-0.069494,0.049705,-0.114597,1,1,0
1747,44,-0.579024,0.021716,-0.068829,0.058498,1,1,0
1735,44,-0.617362,0.024356,0.191805,-0.103147,1,1,0
1732,44,-0.546744,-0.062980,0.095754,-0.125169,1,1,0
1721,44,-0.579357,0.062440,0.131038,-0.154344,1,1,0
1731,44,-0.559066,0.039619,0.034511,-0.243896,1,1,0
1725,44,-0.630772,-0.012124,0.160814,-0.117397,1,1,0
1722,44,-0.529612,-0.017897,0.217022,-0.084501,1,1,0
1736,44,-0.496965,-0.019016,0.093406,-0.074031,1,1,0
1793,45,-0.590129,-0.071813,-0.067251,-0.034000,1,1,0
1794,45,-0.566426,-0.059069,-0.096743,0.034059,1,1,0
1769,45,-0.581032,0.030427,0.080996,-0.101247,1,1,0
1768,45,-0.547602,-0.025407,0.078310,-0.068191,1,1,0
1763,45,-0.578863,-0.008128,0.062827,-0.029857,1,1,0
1780,45,-0.515573,-0.020066,0.015158,-0.023953,1,1,0
1773,45,-0.640636,0.097019,0.074227,-0.099746,1,1,0
1797,45,-0.564165,-0.039023,-0.190778,0.059294,1,1,0
1761,45,-0.529781,-0.032592,0.070492,-0.091235,1,1,0
1791,45,-0.629043,0.072165,-0.053306,0.025712,1,1,0
1767,45,-0.562828,0.114574,0.147633,-0.085302,1,1,0
1770,45,-0.586515,-0.054226,0.165468,-0.064640,1,1,0
1779,45,-0.596718,-0.018188,0.103154,-0.104278,1,1,0
1781,45,-0.539460,-0.038674,-0.102279,0.099506,1,1,0
1784,45,-0.592907,-0.040028,-0.076481,0.068083,1,1,0
1774,45,-0.592181,0.060645,-0.040983,-0.122096,1,1,0
1771,45,-0.630955,0.049239,0.068405,-0.099174,1,1,0
1786,45,-0.565239,-0.056589,-0.037476,0.168734,1,1,0
1765,45,-0.469048,0.004855,0.120022,-0.086581,1,1,0
1787,45,-0.529013,-0.053986,-0.098080,0.006471,1,1,0
1762,45,-0.487668,-0.012308,-0.023912,-0.159035,1,1,0
1796,45,-0.556814,-0.062394,-0.014825,0.021171,1,1,0
1799,45,-0.568449,0.090594,-0.087474,0.193251,1,1,0
1792,45,-0.616830,-0.060231,-0.009188,0.127315,1,1,0
1790,45,-0.634245,-0.034752,-0.051801,0.011202,1,1,0
1775,45,-0.490152,0.061831,0.170332,-0.058667,1,1,0
1783,45,-0.603299,-0.144076,-0.018786,0.125318,0,1,0
1772,45,-0.608422,0.014225,0.089608,-0.089555,1,1,0
1795,45,-0.518005,-0.096355,-0.092361,0.054346,1,1,0
1789,45,-0.563536,-0.005396,-0.065098,0.021577,1,1,0
1776,45,-0.592967,0.011443,0.080858,-0.081165,1,1,0
1788,45,-0.606199,-0.025890,-0.067989,0.031656,1,1,0
1760,45,-0.631641,0.024985,0.135342,-0.099182,1,1,0
1785,45,-0.551754,-0.002026,-0.017882,-0.043521,1,1,0
1766,45,-0.548636,-0.019033,0.073734,-0.222084,1,1,0
1798,45,-0.531332,-0.071526,-0.061839,0.127386,1,1,0
1778,45,-0.675215,0.025147,0.128423,-0.134251,1,1,0
1777,45,-0.514594,0.043500,0.222010,-0.110209,1,1,0
1764,45,-0.585072,-0.040263,0.114533,-0.014962,1,1,0
1782,45,-0.583450,-0.077836,-0.112777,0.154161,1,1,0
1819,46,-0.551920,0.064105,0.146280,-0.153465,1,1,0
1806,46,-0.585139,0.058389,0.075112,-0.137196,1,1,0
1837,46,-0.621273,0.027834,-0.100072,0.060559,1,1,0
1800,46,-0.535426,0.012800,0.142735,-0.100618,1,1,0
1801,46,-0.639189,-0.105866,0.125596,-0.161316,1,1,0
1831,46,-0.546235,-0.047653,-0.148140,0.089009,1,1,0
1811,46,-0.623586,-0.056606,0.090634,-0.119190,1,1,0
1820,46,-0.579504,-0.015351,-0.050574,0.058482,1,1,0
1832,46,-0.499974,-0.068140,-0.044079,0.070631,1,1,0
1813,46,-0.624101,-0.034991,0.108886,0.000813,1,1,0
1803,46,-0.542852,-0.004967,0.061058,-0.083844,1,1,0
1838,46,-0.542640,-0.025331,-0.106738,0.116188,1,1,0
1802,46,-0.581416,-0.074481,0.143296,-0.130115,1,1,0
1836,46,-0.589200,-0.040643,0.013939,0.073578,1,1,0
1833,46,-0.625030,-0.002015,-0.120118,0.134698,1,1,0
1814,46,-0.590716,0.007939,0.100417,0.020983,1,1,0
1826,46,-0.534432,-0.064312,-0.007345,-0.033977,1,1,0
1827,46,-0.478043,-0.046587,-0.044870,0.021440,1,1,0
1830,46,-0.618970,-0.042263,-0.115985,0.102187,1,1,0
1825,46,-0.560600,-0.018940,-0.090455,0.029680,1,1,0
1822,46,-0.503521,-0.071594,-0.112024,0.033069,1,1,0
1809,46,-0.541568,0.008589,0.101356,-0.112494,1,1,0
1808,46,-0.538460,0.022615,0.197217,-0.065733,1,1,0
1828,46,-0.623380,-0.049097,-0.045155,0.089363,1,1,0
1816,46,-0.620612,-0.060609,0.048922,-0.111076,1,1,0
1817,46,-0.671151,0.005562,0.227384,-0.169157,1,1,0
1835,46,-0.557907,-0.104147,-0.046063,0.085274,1,1,0
1818,46,-0.554585,0.031887,0.143407,-0.134983,1,1,0
1823,46,-0.529405,-0.044230,-0.074990,-0.023073,1,1,0
1810,46,-0.637902,0.027017,0.082815,-0.122148,1,1,0
1834,46,-0.618772,-0.021088,-0.081384,0.092565,1,1,0
1821,46,-0.609808,-0.006475,-0.092795,0.102588,1,1,0
1812,46,-0.626259,0.026159,0.082533,-0.166444,1,1,0
1815,46,-0.562264,0.062813,0.067466,-0.150095,1,1,0
1807,46,-0.620123,-0.005685,0.107538,-0.078234,1,1,0
1824,46,-0.638442,0.008742,-0.124896,-0.014613,1,1,0
1829,46,-0.508972,0.016556,-0.074042,0.065447,1,1,0
1839,46,-0.538668,-0.048774,-0.063847,0.099256,1,1,0
1804,46,-0.446941,0.011793,0.093135,-0.096324,1,1,0
1805,46,-0.525205,0.004374,0.038434,-0.080062,1,1,0
1872,47,-0.536181,-0.064670,-0.126345,0.109190,1,1,0
1865,47,-0.599446,-0.023922,-0.055637,0.153393,1,1,0
1878,47,-0.577482,-0.000500,0.036226,0.065819,1,1,0
1854,47,-0.586459,0.105798,0.151088,-0.109563,1,1,0
1867,47,-0.607785,-0.032999,-0.093190,0.051543,1,1,0
1870,47,-0.512267,0.044373,-0.103221,0.076930,1,1,0
1879,47,-0.524113,-0.009386,0.003594,0.098681,1,1,0
1877,47,-0.620779,0.051182,-0.135523,0.105631,1,1,0
1855,47,-0.597335,0.003973,0.139643,0.004244,1,1,0
1876,47,-0.628883,-0.004036,-0.079344,0.045221,1,1,0
1863,47,-0.605085,-0.042653,-0.043241,0.040405,1,1,0
1860,47,-0.493036,-0.106577,-0.006562,0.062741,0,1,0
1874,47,-0.615147,0.002849,-0.011879,0.017054,1,1,0
1850,47,-0.555088,-0.040447,0.094162,-0.076851,1,1,0
1841,47,-0.591988,0.078710,0.095195,-0.092583,1,1,0
1868,47,-0.577684,-0.087209,-0.120771,-0.010446,1,1,0
1859,47,-0.481115,-0.021290,0.103760,-0.097393,1,1,0
1873,47,-0.559037,0.007130,-0.119685,-0.057704,1,1,0
1861,47,-0.530460,-0.035863,-0.061105,0.160145,1,1,0
1848,47,-0.628914,0.025192,0.106026,-0.011413,1,1,0
1862,47,-0.604323,-0.106353,-0.049693,0.094159,1,1,0
1846,47,-0.536680,-0.016627,0.099405,-0.080741,1,1,0
1843,47,-0.697674,0.005519,0.179633,-0.139873,1,1,0
1851,47,-0.543856,0.041370,0.140014,-0.089159,1,1,0
1847,47,-0.556533,-0.009495,0.245559,-0.104328,1,1,0
1858,47,-0.562218,-0.007019,0.097963,-0.088703,1,1,0
1852,47,-0.654062,-0.047274,0.182033,-0.121689,1,1,0
1857,47,-0.578441,0.041210,0.168226,-0.075349,1,1,0
1849,47,-0.551084,0.002390,0.199325,-0.153345,1,1,0
1845,47,-0.668929,-0.027284,0.222860,-0.156650,1,1,0
1853,47,-0.642034,0.129191,0.067417,-0.104286,1,0,0
1875,47,-0.558870,-0.007861,-0.080906,0.014094,1,1,0
1844,47,-0.443704,0.048638,0.130293,-0.057541,1,0,0
1866,47,-0.529809,-0.083565,-0.010454,0.128062,1,1,0
1842,47,-0.602152,0.035848,0.114083,-0.123403,1,1,0
1856,47,-0.618226,-0.007961,0.042309,-0.052665,1,1,0
1864,47,-0.558828,0.029716,-0.088114,0.048323,1,1,0
1840,47,-0.553231,0.089526,0.084975,-0.106140,1,1,0
1869,47,-0.576876,-0.029308,-0.079513,0.027856,1,1,0
1871,47,-0.610058,0.006639,-0.064261,-0.011653,1,1,0
1890,48,-0.514666,0.025395,0.141468,-0.118253,1,1,0
1902,48,-0.629969,-0.054876,-0.075008,0.161144,1,1,0
1891,48,-0.657185,0.025189,0.108899,-0.115942,1,1,0
1914,48,-0.592777,-0.008794,-0.085775,0.126906,1,1,0
1910,48,-0.647976,0.021758,-0.050850,0.072796,1,1,0
1899,48,-0.653860,-0.000912,0.186777,-0.109593,1,1,0
1881,48,-0.602118,0.026370,0.085941,-0.168292,1,1,0
1901,48,-0.482554,0.068803,-0.052750,0.123814,1,1,0
1916,48,-0.537682,0.089868,-0.009796,0.051149,1,1,0
1915,48,-0.555238,0.035050,-0.089967,-0.019899,1,1,0
1885,48,-0.610354,0.080780,0.203184,-0.116839,1,1,0
1883,48,-0.714174,0.037235,0.087157,-0.089166,1,0,0
1917,48,-0.607568,-0.026697,-0.059075,0.051059,1,1,0
1913,48,-0.602873,0.051891,-0.094166,0.121561,1,1,0
1898,48,-0.646642,-0.073717,0.136729,-0.088701,1,1,0
1884,48,-0.629496,0.095135,0.215369,-0.128347,1,1,0
1909,48,-0.568733,-0.045653,-0.029325,0.103262,1,1,0
1905,48,-0.641810,0.041258,-0.089330,0.089980,1,1,0
1897,48,-0.606509,0.020963,0.155397,-0.143523,1,1,0
1888,48,-0.586236,-0.033119,0.035639,-0.140492,1,1,0
1907,48,-0.627025,0.010847,-0.224424,0.014197,1,1,0
1889,48,-0.565289,-0.052696,0.070007,-0.111492,1,1,0
1918,48,-0.576729,-0.004857,-0.014759,0.120599,1,1,0
1887,48,-0.613701,0.007389,0.102152,-0.114828,1,1,0
1896,48,-0.635941,-0.000133,0.109544,-0.137142,1,1,0
1919,48,-0.549118,0.046838,0.015284,0.010461,1,1,0
1880,48,-0.658082,-0.004239,0.073428,-0.064742,1,1,0
1912,48,-0.571891,0.007871,-0.062092,0.081630,1,1,0
1892,48,-0.615886,0.027251,0.103919,-0.118381,1,1,0
1886,48,-0.525690,-0.075018,0.042125,-0.113786,1,1,0
1903,48,-0.595638,-0.120382,-0.164373,0.139328,1,1,0
1900,48,-0.642624,-0.164833,-0.132547,0.129018,0,1,0
1895,48,-0.679700,-0.034826,0.079751,-0.125853,1,1,0
1911,48,-0.445343,0.012710,-0.140814,0.051106,1,1,0
1893,48,-0.611464,-0.053777,0.122667,-0.209918,1,1,0
1904,48,-0.455046,-0.031617,-0.106458,0.098865,1,1,0
1894,48,-0.585727,0.002790,0.094338,-0.101453,1,1,0
1908,48,-0.573538,-0.012754,-0.122785,0.052766,1,1,0
1906,48,-0.536268,-0.000230,-0.047393,0.108746,1,1,0
1882,48,-0.464913,0.005892,0.129250,-0.168637,1,1,0
1927,49,-0.499090,0.033548,0.123244,-0.056100,1,1,0
1931,49,-0.637232,0.039161,0.165125,-0.114367,1,1,0
1934,49,-0.593311,-0.031382,0.109586,-0.043948,1,1,0
1954,49,-0.542307,-0.000127,-0.059987,0.097994,1,1,0
1937,49,-0.581752,0.009350,0.102611,-0.112307,1,1,0
1953,49,-0.610771,-0.157489,-0.028705,0.113133,0,1,0
1926,49,-0.581313,-0.000690,0.167236,-0.099247,1,1,0
1938,49,-0.646113,0.050164,0.195350,-0.147680,1,1,0
1921,49,-0.520982,0.060664,0.237730,-0.110233,1,1,0
1950,49,-0.586153,-0.020229,-0.092459,0.096052,1,1,0
1952,49,-0.558288,-0.074094,-0.042313,0.128747,1,1,0
1929,49,-0.618680,-0.024567,0.182599,-0.060956,1,1,0
1920,49,-0.583076,0.025332,0.086513,-0.066027,1,1,0
1949,49,-0.607112,-0.020950,-0.071660,0.024471,1,1,0
1945,49,-0.668089,0.014414,-0.067119,0.154150,1,1,0
1928,49,-0.568638,-0.013781,0.111510,-0.051417,1,1,0
1951,49,-0.500799,-0.084432,-0.118992,0.201971,1,1,0
1923,49,-0.497139,0.105120,0.198158,-0.006906,1,1,0
1939,49,-0.660103,-0.101537,0.074697,-0.111035,1,1,0
1935,49,-0.669487,0.014924,0.148440,-0.095174,1,1,0
1924,49,-0.535190,0.008395,0.138609,-0.156336,1,1,0
1957,49,-0.596638,0.007359,-0.056043,0.005196,1,1,0
1922,49,-0.591466,0.022378,0.121075,-0.047924,1,1,0
1942,49,-0.621616,-0.060733,-0.099240,0.031875,1,1,0
1955,49,-0.540451,-0.095255,-0.101084,0.123122,1,1,0
1925,49,-0.541205,0.036808,0.105993,-0.092709,1,1,0
1941,49,-0.653528,-0.015694,-0.128800,0.114556,1,1,0
1958,49,-0.594098,-0.041169,-0.043748,0.116329,1,1,0
1944,49,-0.631896,0.004134,-0.080967,0.138065,1,1,0
1932,49,-0.574281,0.098290,0.054213,-0.157375,1,1,0
1940,49,-0.446320,0.031212,-0.091562,0.082914,1,1,0
1930,49,-0.598030,0.023955,0.094738,-0.115092,1,1,0
1946,49,-0.541661,-0.017480,0.029027,0.041680,1,1,0
1933,49,-0.567252,0.056662,0.163923,-0.118003,1,1,0
1959,49,-0.521443,-0.068585,-0.018479,0.156839,1,1,0
1948,49,-0.491651,0.069457,-0.049135,0.106033,1,1,0
1936,49,-0.532720,0.000508,0.170987,-0.044341,1,1,0
1947,49,-0.546417,-0.000178,-0.020149,0.034725,1,1,0
1956,49,-0.564954,-0.042534,-0.024839,0.062876,1,1,0
1943,49,-0.603353,-0.004894,-0.077122,0.050491,1,1,0
1986,50,-0.583615,0.050887,-0.060498,0.119513,1,1,0
1999,50,-0.672519,-0.075697,-0.125126,0.023016,1,1,0
1970,50,-0.527708,0.045345,0.101420,-0.142455,1,1,0
1969,50,-0.547164,-0.003258,0.142213,-0.012477,1,1,0
1981,50,-0.564592,-0.027645,-0.005838,0.110604,1,1,0
1994,50,-0.558594,-0.070218,-0.160142,-0.012649,1,1,0
1985,50,-0.599039,-0.038187,-0.033153,0.117328,1,1,0
1979,50,-0.554993,0.062448,0.133563,-0.189497,1,1,0
1980,50,-0.606790,-0.059000,-0.031831,0.183107,1,1,0
1997,50,-0.635681,0.026596,-0.027921,0.136219,1,1,0
1982,50,-0.530073,-0.012221,-0.083269,0.027118,1,1,0
1989,50,-0.499947,0.071999,-0.078388,-0.067806,1,1,0
1965,50,-0.528944,0.035956,0.217040,-0.207267,1,1,0
1975,50,-0.523603,-0.026195,0.116990,-0.134886,1,1,0
1967,50,-0.572374,0.025319,0.211320,-0.103817,1,1,0
1976,50,-0.690249,0.023110,0.120636,-0.175051,1,1,0
1977,50,-0.578961,-0.011127,0.155685,-0.167948,1,1,0
1998,50,-0.521246,-0.095349,0.016857,0.078505,1,1,0
1990,50,-0.607452,-0.007846,-0.115789,0.074734,1,1,0
1987,50,-0.534598,0.015797,-0.074561,0.060731,1,1,0
1978,50,-0.583107,-0.021094,0.104840,-0.152406,1,1,0
1966,50,-0.568711,-0.007933,0.082330,-0.110605,1,1,0
1984,50,-0.502000,0.012302,-0.112602,0.069843,1,1,0
1983,50,-0.577115,0.014288,-0.142520,0.087535,1,1,0
1996,50,-0.454600,-0.066439,-0.028974,0.069030,0,1,0
1988,50,-0.586475,-0.054223,-0.110366,0.019761,1,1,0
1995,50,-0.658493,-0.018272,-0.050374,0.143067,1,1,0
1961,50,-0.531669,0.010904,0.020269,-0.052567,1,1,0
1960,50,-0.665637,0.055139,0.110429,-0.075843,1,1,0
1992,50,-0.599838,0.004737,-0.033709,0.094494,1,1,0
1973,50,-0.586710,0.017261,0.045608,-0.107718,1,1,0
1974,50,-0.504437,-0.040334,0.127685,-0.064196,1,1,0
1971,50,-0.597925,0.112900,0.168800,-0.020869,1,1,0
1972,50,-0.551142,0.033491,0.058564,-0.159287,1,1,0
1968,50,-0.632497,0.021700,0.164077,-0.148034,1,1,0
1962,50,-0.631725,0.037401,0.159389,-0.122051,1,1,0
1964,50,-0.614964,0.054648,0.173835,-0.116491,1,1,0
1991,50,-0.479527,0.034403,-0.132455,0.028135,1,1,0
1993,50,-0.541237,-0.042306,-0.059604,0.058471,1,1,0
1963,50,-0.533745,0.021214,0.127673,-0.113348,1,1,0
2000,51,-0.616950,0.046777,0.169986,-0.073352,1,1,0
2034,51,-0.584817,-0.060769,-0.067249,0.010964,1,1,0
2006,51,-0.459754,0.041229,0.037658,-0.042335,1,1,0
2035,51,-0.595313,0.056145,-0.060451,0.116946,1,1,0
2020,51,-0.524131,-0.028244,-0.098068,0.131745,1,1,0
2032,51,-0.616479,-0.022786,-0.106525,0.031239,1,1,0
2009,51,-0.598819,0.048359,0.105789,-0.022122,1,1,0
2003,51,-0.571011,-0.013550,0.098127,-0.124784,1,1,0
2033,51,-0.610955,-0.023838,0.037087,0.061484,1,1,0
2013,51,-0.589237,0.065440,0.000696,-0.159101,1,1,0
2022,51,-0.657520,-0.012975,-0.098816,0.025673,1,1,0
2005,51,-0.591443,0.027376,0.138447,-0.068082,1,1,0
2004,51,-0.581929,-0.035050,0.049336,-0.112889,1,1,0
2001,51,-0.586087,0.059391,0.160658,-0.151240,1,1,0
2025,51,-0.563833,0.002853,0.004933,0.066742,1,1,0
2010,51,-0.561590,0.000661,0.166837,-0.176900,1,1,0
2036,51,-0.450317,-0.062504,-0.036823,0.027033,0,1,0
2012,51,-0.682271,0.046399,0.161703,-0.148395,1,1,0
2008,51,-0.520312,-0.015526,0.151145,-0.129417,1,1,0
2011,51,-0.639167,0.070378,0.187528,-0.194556,1,1,0
2019,51,-0.579293,-0.049364,0.124422,-0.097607,1,1,0
2018,51,-0.612712,-0.013574,0.145234,-0.061609,1,1,0
2017,51,-0.579074,-0.000395,0.050558,-0.116552,1,1,0
2024,51,-0.525271,-0.035840,-0.057257,0.138018,1,1,0
2029,51,-0.575998,-0.003938,-0.118426,0.177032,1,1,0
2027,51,-0.505926,0.011731,-0.025340,0.089280,1,1,0
2039,51,-0.605461,0.010623,-0.082652,0.132812,1,1,0
2021,51,-0.631319,-0.059057,-0.146694,-0.007910,1,1,0
2015,51,-0.555151,0.018496,0.125251,-0.089073,1,1,0
2016,51,-0.591499,0.105554,0.165948,-0.146791,1,1,0
2030,51,-0.603414,-0.067567,-0.052037,0.006614,1,1,0
2023,51,-0.573765,-0.070191,0.017544,0.136915,1,1,0
2026,51,-0.558919,-0.037973,-0.104842,0.094371,1,1,0
2002,51,-0.597104,0.098630,0.108164,-0.043055,1,1,0
2014,51,-0.561354,0.137538,-0.015710,-0.074600,1,0,0
2007,51,-0.587135,0.047846,0.143456,-0.097297,1,1,0
2038,51,-0.530872,-0.028387,-0.096099,0.061446,1,1,0
2037,51,-0.620833,0.014578,-0.027260,0.074766,1,1,0
2031,51,-0.544341,-0.037671,-0.032282,0.182117,1,1,0
2028,51,-0.581091,0.035116,-0.095136,0.103259,1,1,0
2078,52,-0.607190,-0.097967,-0.016611,0.035583,1,1,0
2063,52,-0.523008,-0.007800,-0.030236,0.032249,1,1,0
2056,52,-0.612803,0.090103,0.047329,-0.221765,1,1,0
2052,52,-0.502970,-0.018508,0.218521,-0.095793,1,1,0
2071,52,-0.592548,-0.001947,-0.077725,0.123757,1,1,0
2057,52,-0.660746,0.040656,0.100777,-0.068258,1,1,0
2060,52,-0.490284,0.015552,-0.084347,0.138436,1,1,0
2055,52,-0.559158,-0.003616,0.159833,-0.145565,1,1,0
2065,52,-0.566529,-0.119620,-0.068973,0.007385,1,1,0
2050,52,-0.574967,0.007152,0.039318,-0.084391,1,1,0
2053,52,-0.521947,-0.113424,0.098958,-0.071796,1,1,0
2064,52,-0.531203,0.022066,-0.055336,0.108198,1,1,0
2068,52,-0.650749,0.025710,-0.071453,0.121375,1,1,0
2075,52,-0.594595,-0.043073,-0.114388,0.012519,1,1,0
2043,52,-0.619249,0.092833,0.149134,-0.150079,1,1,0
2045,52,-0.607714,0.085167,0.191825,-0.094513,1,1,0
2040,52,-0.550528,0.049120,0.103735,-0.114970,1,1,0
2047,52,-0.578191,0.027167,0.096780,-0.133376,1,1,0
2044,52,-0.678038,0.041232,0.213049,-0.052519,1,1,0
2066,52,-0.556717,-0.080480,-0.139285,0.068107,1,1,0
2051,52,-0.535585,-0.011538,0.063704,-0.073242,1,1,0
2070,52,-0.530814,0.053220,-0.044066,0.070785,1,1,0
2067,52,-0.504109,-0.083116,0.009182,0.091639,1,1,0
2072,52,-0.551764,-0.071692,-0.079855,0.076293,1,1,0
2054,52,-0.694631,0.019128,0.177871,-0.093984,1,1,0
2069,52,-0.590403,-0.038005,-0.115351,0.199881,1,1,0
2042,52,-0.563522,0.014020,0.124010,-0.138919,1,1,0
2073,52,-0.586755,-0.049036,-0.120292,0.144446,1,1,0
2077,52,-0.551306,-0.013020,-0.118347,0.071854,1,1,0
2059,52,-0.610048,-0.093882,0.096524,-0.143108,1,1,0
2074,52,-0.616828,0.049604,-0.109464,0.010514,1,1,0
2046,52,-0.637553,-0.067911,0.100395,-0.029050,1,1,0
2049,52,-0.603067,0.031666,0.168087,-0.112608,1,1,0
2061,52,-0.568374,-0.013927,-0.017317,0.150609,1,1,0
2041,52,-0.596060,0.047710,0.114086,-0.014507,1,1,0
2079,52,-0.610423,-0.015219,-0.043133,0.177740,1,1,0
2058,52,-0.529266,0.033798,0.046563,-0.070617,1,1,0
2048,52,-0.587757,0.070021,0.123966,-0.097823,1,1,0
2076,52,-0.608479,0.020643,-0.051860,0.105601,1,1,0
2062,52,-0.506415,0.045654,-0.110013,0.103266,1,1,0
2093,53,-0.617137,0.053017,0.122769,-0.031291,1,1,0
2097,53,-0.553475,0.073838,0.093117,-0.083348,1,1,0
2094,53,-0.525989,0.000676,0.256640,-0.040095,1,1,0
2089,53,-0.500747,0.081683,0.107477,-0.124944,1,1,0
2086,53,-0.615909,0.024367,0.045945,-0.070997,1,1,0
2107,53,-0.550120,-0.026248,-0.018103,0.137859,1,1,0
2098,53,-0.564568,-0.032683,0.154251,-0.167407,1,1,0
2106,53,-0.630917,0.035983,-0.006952,0.061138,1,1,0
2109,53,-0.530007,-0.015606,0.004451,0.056698,1,1,0
2087,53,-0.592811,0.003822,0.060239,-0.090031,1,1,0
2117,53,-0.552507,-0.003214,-0.083407,-0.013630,1,1,0
2118,53,-0.614994,-0.018815,-0.066743,-0.043820,1,1,0
2113,53,-0.596548,-0.080868,-0.078462,0.093042,1,1,0
2111,53,-0.539962,-0.009210,-0.082746,-0.009082,1,1,0
2081,53,-0.630588,0.006738,0.038912,-0.152060,1,1,0
2092,53,-0.620182,-0.010451,0.136505,-0.158125,1,1,0
2100,53,-0.566450,0.022358,-0.068101,0.059049,1,1,0
2099,53,-0.568431,-0.001007,0.053415,-0.124037,1,1,0
2083,53,-0.600514,0.073269,0.128687,-0.067768,1,1,0
2104,53,-0.594866,0.076172,-0.088325,0.158745,1,1,0
2096,53,-0.536316,-0.033523,0.127707,-0.088883,1,1,0
2090,53,-0.624741,0.089409,0.107727,-0.036500,1,1,0
2105,53,-0.471599,-0.050474,-0.106030,0.073488,1,1,0
2084,53,-0.607720,-0.081246,0.168573,-0.190198,1,1,0
2115,53,-0.614934,0.065350,-0.046320,0.016383,1,1,0
2095,53,-0.617084,0.023379,0.183587,-0.175919,1,1,0
2082,53,-0.573505,0.007034,0.027013,-0.203457,1,1,0
2119,53,-0.602587,0.011792,0.002815,0.008065,1,1,0
2108,53,-0.544533,-0.072441,-0.008268,-0.021576,1,1,0
2085,53,-0.550388,0.029660,0.122693,-0.225747,1,1,0
2116,53,-0.557994,0.091426,-0.102186,0.081801,1,1,0
2110,53,-0.551346,-0.027972,-0.056272,0.040707,1,1,0
2112,53,-0.558568,-0.023075,-0.003528,0.123523,1,1,0
2091,53,-0.600961,0.025182,0.069510,-0.134457,1,1,0
2080,53,-0.709116,0.187879,0.129242,-0.103673,1,0,0
2101,53,-0.521950,-0.065284,0.019407,0.053050,1,1,0
2088,53,-0.495781,-0.067529,0.138220,-0.118020,1,1,0
2102,53,-0.607394,-0.053022,-0.020881,0.107356,1,1,0
2103,53,-0.529505,0.016857,-0.008852,0.141129,1,1,0
2114,53,-0.531892,-0.039862,-0.059489,0.077441,1,1,0
2156,54,-0.517955,0.069070,-0.066072,0.091003,1,1,0
2137,54,-0.604515,0.053921,0.097188,-0.179017,1,1,0
2141,54,-0.570722,-0.058514,-0.161310,0.082326,1,1,0
2127,54,-0.661875,-0.014184,0.124999,-0.031478,1,1,0
2157,54,-0.674899,-0.154577,-0.038019,0.066814,0,1,0
2158,54,-0.538124,-0.073915,-0.026609,0.145113,1,1,0
2129,54,-0.522375,0.029793,0.159410,-0.073606,1,1,0
2128,54,-0.544568,-0.010597,0.175047,-0.171526,1,1,0
2122,54,-0.639869,-0.026792,0.072165,-0.078776,1,1,0
2142,54,-0.553652,-0.054295,-0.118179,0.051301,1,1,0
2126,54,-0.637367,-0.089632,0.246742,-0.087931,1,1,0
2148,54,-0.690401,0.036784,-0.087171,0.081385,1,1,0
2130,54,-0.591288,0.036338,0.167311,-0.086017,1,1,0
2146,54,-0.560299,0.055520,0.016950,0.152001,1,1,0
2134,54,-0.598463,0.019434,0.055441,-0.097538,1,1,0
2153,54,-0.574168,-0.019002,-0.129185,0.037893,1,1,0
2154,54,-0.646521,-0.000470,-0.052461,0.059032,1,1,0
2124,54,-0.631153,0.004972,0.084936,-0.053663,1,1,0
2150,54,-0.603221,0.069293,-0.107967,0.093849,1,1,0
2120,54,-0.446791,-0.043677,0.194111,-0.104689,1,1,0
2159,54,-0.523791,0.021086,-0.076223,0.073273,1,1,0
2133,54,-0.606389,0.006978,0.086812,-0.037687,1,1,0
2131,54,-0.641241,0.047042,0.086404,-0.131579,1,1,0
2135,54,-0.558193,-0.040004,0.107081,-0.119212,1,1,0
2152,54,-0.562609,0.009212,-0.052613,0.019555,1,1,0
2138,54,-0.442822,0.065709,0.194128,-0.135867,1,0,0
2132,54,-0.611132,0.051449,0.175318,-0.172996,1,1,0
2145,54,-0.528099,-0.075891,-0.065479,0.123302,1,1,0
2144,54,-0.544570,0.081861,-0.123445,0.137815,1,1,0
2151,54,-0.612128,-0.060458,-0.065602,0.153497,1,1,0
2147,54,-0.612756,-0.023413,-0.022498,0.135059,1,1,0
2125,54,-0.510706,-0.016198,0.125571,-0.113025,1,1,0
2123,54,-0.568722,-0.034504,0.027900,-0.096357,1,1,0
2149,54,-0.634808,-0.070937,-0.116526,0.026774,1,1,0
2121,54,-0.564577,-0.043633,0.125970,-0.195755,1,1,0
2140,54,-0.509514,-0.043922,-0.160015,0.084381,1,1,0
2155,54,-0.587403,-0.058697,0.022964,0.108976,1,1,0
2139,54,-0.661519,-0.093878,0.217822,-0.118830,1,1,0
2136,54,-0.685872,-0.016791,0.056056,-0.134074,1,1,0
2143,54,-0.547462,0.066480,0.014069,0.015665,1,1,0
2199,55,-0.562537,0.038826,-0.095956,0.054017,1,1,0
2170,55,-0.645083,0.020579,0.085465,-0.209214,1,1,0
2173,55,-0.559531,0.014316,0.119631,-0.307982,1,1,0
2198,55,-0.604284,0.001300,-0.060691,0.116913,1,1,0
2171,55,-0.676136,-0.027026,0.089865,-0.176796,1,1,0
2183,55,-0.550241,-0.038504,-0.097808,0.166299,1,1,0
2176,55,-0.637412,0.008272,0.102548,-0.140964,1,1,0
2160,55,-0.575315,0.053490,0.065181,-0.241538,1,1,0
2169,55,-0.532963,0.035310,0.082261,-0.148765,1,1,0
2163,55,-0.591455,-0.069975,0.064989,-0.242725,1,1,0
2164,55,-0.616767,-0.011680,0.032618,-0.237283,1,1,0
2166,55,-0.627422,0.131568,0.026828,-0.301342,1,0,0
2197,55,-0.603756,0.057622,-0.131330,0.046431,1,1,0
2162,55,-0.623030,0.106573,0.079847,-0.193700,1,1,0
2187,55,-0.640689,-0.010430,-0.067353,0.019165,1,1,0
2195,55,-0.492026,-0.011046,-0.009464,0.073481,1,1,0
2178,55,-0.468556,0.030166,0.025654,-0.235067,1,1,0
2184,55,-0.560549,0.027557,0.056039,0.113951,1,1,0
2177,55,-0.486165,-0.089549,0.040949,-0.144740,1,1,0
2194,55,-0.507272,-0.010135,-0.029560,0.090494,1,1,0
2172,55,-0.571140,0.004964,0.020023,-0.244038,1,1,0
2190,55,-0.594918,-0.027027,-0.048457,0.083024,1,1,0
2186,55,-0.476913,-0.098370,-0.017298,0.129629,0,1,0
2189,55,-0.592376,-0.004445,-0.083579,0.025085,1,1,0
2179,55,-0.548647,-0.022815,0.012680,-0.248988,1,1,0
2192,55,-0.568807,-0.050440,-0.000166,0.046943,1,1,0
2167,55,-0.584875,0.063621,0.071185,-0.131507,1,1,0
2181,55,-0.608535,0.054226,-0.031471,0.002694,1,1,0
2193,55,-0.662686,-0.058202,-0.040106,0.065795,1,1,0
2175,55,-0.606655,0.022913,0.116338,-0.174604,1,1,0
2185,55,-0.497028,0.016249,-0.104137,0.090994,1,1,0
2161,55,-0.565781,0.033943,0.099304,-0.185940,1,1,0
2188,55,-0.594009,0.022777,-0.046439,0.054636,1,1,0
2182,55,-0.577040,0.019240,-0.033591,0.098912,1,1,0
2191,55,-0.595795,-0.020161,-0.075756,0.186837,1,1,0
2168,55,-0.631221,0.016169,0.094691,-0.265500,1,1,0
2196,55,-0.550108,-0.070003,-0.015194,-0.012746,1,1,0
2174,55,-0.569887,0.051011,0.106653,-0.147588,1,1,0
2180,55,-0.469061,-0.063885,-0.029158,0.115167,1,1,0
2165,55,-0.529290,0.036053,0.039429,-0.223398,1,1,0
2200,56,-0.618013,0.025274,0.092458,-0.277121,1,1,0
2207,56,-0.587587,-0.019722,0.073715,-0.170658,1,1,0
2226,56,-0.551116,0.013215,-0.058958,0.032096,1,1,0
2231,56,-0.529572,-0.029125,-0.065858,0.088959,1,1,0
2205,56,-0.597395,0.076610,0.037313,-0.186249,1,1,0
2211,56,-0.557780,-0.073352,0.081471,-0.216360,1,1,0
2201,56,-0.623518,0.052382,0.105532,-0.283339,1,1,0
2222,56,-0.610838,-0.108940,-0.127195,0.108958,1,1,0
2219,56,-0.581102,0.050703,0.046831,-0.214622,1,1,0
2213,56,-0.537562,0.069355,0.028592,-0.204303,1,1,0
2235,56,-0.599422,-0.042967,-0.057005,0.055480,1,1,0
2236,56,-0.619215,-0.015255,-0.047024,0.099031,1,1,0
2209,56,-0.589549,0.033283,0.017405,-0.244870,1,1,0
2229,56,-0.534517,0.008594,-0.003401,0.066075,1,1,0
2239,56,-0.544434,-0.030133,-0.168067,0.108762,1,1,0
2203,56,-0.608507,0.031202,0.099624,-0.189155,1,1,0
2228,56,-0.629784,-0.125330,-0.095126,0.116612,0,1,0
2238,56,-0.585556,-0.043659,-0.049672,0.092314,1,1,0
2230,56,-0.453571,-0.042987,-0.071204,-0.001975,1,1,0
2221,56,-0.571153,-0.080151,-0.062130,0.084484,1,1,0
2202,56,-0.517356,0.059548,0.071184,-0.147708,1,1,0
2215,56,-0.638245,-0.056498,0.094866,-0.166377,1,1,0
2218,56,-0.597325,0.056844,0.068450,-0.213150,1,1,0
2216,56,-0.613807,0.019048,0.016643,-0.153909,1,1,0
2204,56,-0.658553,0.059039,0.059240,-0.128890,1,1,0
2212,56,-0.597387,0.065379,0.041828,-0.172776,1,1,0
2234,56,-0.514959,-0.022466,-0.071479,0.076648,1,1,0
2223,56,-0.634479,-0.090561,-0.185343,0.034461,1,1,0
2206,56,-0.514702,0.056210,0.152157,-0.127325,1,1,0
2233,56,-0.527072,0.006860,-0.039191,0.044674,1,1,0
2224,56,-0.544273,-0.046642,-0.057366,0.108815,1,1,0
2214,56,-0.648505,0.050384,0.158185,-0.176847,1,1,0
2210,56,-0.591061,-0.008778,0.006935,-0.242186,1,1,0
2225,56,-0.566555,-0.046835,0.007949,0.065200,1,1,0
2208,56,-0.579785,0.021606,0.070506,-0.187251,1,1,0
2220,56,-0.596148,0.025144,-0.126408,0.020311,1,1,0
2227,56,-0.564317,-0.026268,-0.080518,0.139498,1,1,0
2217,56,-0.583438,-0.091032,0.091921,-0.268728,1,1,0
2232,56,-0.575722,-0.012124,-0.060756,0.078676,1,1,0
2237,56,-0.598869,-0.006628,-0.121661,0.052990,1,1,0
2267,57,-0.576050,-0.049040,-0.032057,-0.022972,1,1,0
2245,57,-0.563633,-0.032775,0.083315,-0.172945,1,1,0
2246,57,-0.608279,-0.043505,0.015926,-0.263578,1,1,0
2269,57,-0.573798,-0.086386,-0.095926,0.049146,1,1,0
2244,57,-0.585428,0.056146,0.032221,-0.299278,1,1,0
2274,57,-0.598784,0.031099,-0.077765,-0.013632,1,1,0
2271,57,-0.594751,0.018093,-0.100221,0.083191,1,1,0
2257,57,-0.617197,0.065544,0.084798,-0.226823,1,1,0
2266,57,-0.432325,-0.001089,-0.036670,0.053247,0,1,0
2249,57,-0.584738,0.013136,0.053357,-0.145992,1,1,0
2258,57,-0.598743,0.010179,0.171853,-0.188706,1,1,0
2256,57,-0.518285,-0.043592,0.058417,-0.159902,1,1,0
2276,57,-0.586894,-0.033128,-0.000076,-0.002032,1,1,0
2268,57,-0.610151,0.056214,-0.119053,0.120751,1,1,0
2248,57,-0.527716,0.080062,0.082223,-0.092939,1,1,0
2250,57,-0.611871,0.025152,0.067607,-0.246016,1,1,0
2254,57,-0.579731,0.078569,0.028728,-0.236107,1,1,0
2270,57,-0.541790,-0.063608,-0.096968,-0.007243,1,1,0
2240,57,-0.592313,0.034680,0.203884,-0.279998,1,1,0
2259,57,-0.591862,0.032145,0.055685,-0.202353,1,1,0
2255,57,-0.676690,0.096481,0.049240,-0.254036,1,0,0
2241,57,-0.639694,0.023596,0.094708,-0.264894,1,1,0
2243,57,-0.543830,0.105555,0.082191,-0.155587,1,1,0
2242,57,-0.579459,0.073635,0.084602,-0.263118,1,1,0
2265,57,-0.561847,-0.005083,-0.195995,0.141601,1,1,0
2252,57,-0.567517,-0.029964,0.071334,-0.192054,1,1,0
2262,57,-0.503942,-0.116877,-0.039153,0.109311,0,1,0
2279,57,-0.566817,-0.001063,-0.087534,0.123896,1,1,0
2253,57,-0.526225,-0.039834,0.139373,-0.254339,1,1,0
2251,57,-0.658832,-0.014581,0.039967,-0.147788,1,1,0
2264,57,-0.507243,-0.035251,-0.092525,0.164191,1,1,0
2247,57,-0.541413,0.051516,0.100376,-0.274448,1,1,0
2275,57,-0.471436,-0.028036,-0.112385,0.067746,1,1,0
2278,57,-0.576225,-0.034120,-0.142620,0.069179,1,1,0
2277,57,-0.551879,0.034485,-0.053818,0.126155,1,1,0
2261,57,-0.632741,-0.028022,-0.039059,0.003370,1,1,0
2272,57,-0.607103,-0.019230,-0.082816,0.088485,1,1,0
2263,57,-0.658035,-0.019365,-0.027590,0.035388,1,1,0
2273,57,-0.560280,0.103070,-0.121173,0.045917,1,1,0
2260,57,-0.576816,0.005231,-0.029163,0.148824,1,1,0
2309,58,-0.564777,-0.024194,-0.131338,-0.140120,1,1,0
2293,58,-0.678033,0.092271,0.019523,-0.225538,1,0,0
2284,58,-0.664221,0.036787,0.024296,-0.215861,1,1,0
2286,58,-0.665379,0.060668,-0.059550,-0.197815,1,1,0
2319,58,-0.504452,-0.050331,-0.175476,-0.096729,1,1,0
2292,58,-0.558224,0.038418,0.147530,-0.174674,1,1,0
2308,58,-0.546987,0.003208,-0.146555,-0.133542,1,1,0
2305,58,-0.574481,0.010027,-0.122916,-0.100524,1,1,0
2307,58,-0.542383,-0.019968,-0.099413,-0.083348,1,1,0
2314,58,-0.492408,0.084373,-0.099208,-0.167232,1,1,0
2310,58,-0.522048,0.005021,-0.051325,0.003278,1,1,0
2317,58,-0.527870,-0.005135,-0.126507,-0.180626,1,1,0
2280,58,-0.527948,0.134282,0.121537,-0.150785,1,0,0
2303,58,-0.647569,-0.038442,-0.054686,-0.115977,1,1,0
2300,58,-0.571911,0.090885,-0.054600,-0.170835,1,1,0
2295,58,-0.683577,-0.028606,0.024321,-0.298549,1,1,0
2304,58,-0.532030,-0.003236,-0.100330,-0.076303,1,1,0
2296,58,-0.525680,0.091598,0.174468,-0.202141,1,1,0
2299,58,-0.549527,0.036917,0.049225,-0.192735,1,1,0
2283,58,-0.567259,-0.023438,0.082727,-0.185546,1,1,0
2298,58,-0.613918,-0.002511,0.078434,-0.252276,1,1,0
2282,58,-0.571262,-0.000756,0.040640,-0.169914,1,1,0
2316,58,-0.590970,-0.105880,-0.191702,-0.089008,1,1,0
2290,58,-0.569032,0.002878,0.063797,-0.255370,1,1,0
2312,58,-0.526382,-0.101803,-0.226869,-0.083176,1,1,0
2289,58,-0.570217,-0.002168,0.074222,-0.173250,1,1,0
2318,58,-0.673024,-0.088960,-0.084727,-0.168062,1,1,0
2302,58,-0.552711,0.012864,-0.169853,0.001555,1,1,0
2306,58,-0.624951,0.014267,-0.199342,-0.082083,1,1,0
2313,58,-0.624049,-0.076727,-0.187882,-0.080620,1,1,0
2291,58,-0.540805,0.017645,0.029319,-0.170528,1,1,0
2294,58,-0.561597,0.034830,0.062249,-0.221959,1,1,0
2297,58,-0.518375,0.090844,0.100403,-0.205862,1,1,0
2285,58,-0.570616,0.000127,0.093682,-0.242244,1,1,0
2315,58,-0.510621,-0.014233,-0.209484,-0.118701,1,1,0
2311,58,-0.600741,-0.072019,-0.094439,-0.056006,1,1,0
2301,58,-0.515129,-0.001050,-0.068234,-0.085580,1,1,0
2288,58,-0.510398,-0.016054,0.160588,-0.136724,1,1,0
2287,58,-0.513767,0.055995,0.078630,-0.223425,1,1,0
2281,58,-0.631818,-0.017926,0.078686,-0.252822,1,1,0
2330,59,-0.547065,-0.014516,0.017146,-0.271801,1,1,0
2355,59,-0.569819,0.001857,-0.181406,-0.065595,1,1,0
2324,59,-0.555873,0.094658,0.058987,-0.202001,1,1,0
2346,59,-0.606125,-0.083339,-0.137959,-0.150675,1,1,0
2351,59,-0.570667,-0.016418,-0.099897,-0.024352,1,1,0
2347,59,-0.558645,0.000456,-0.147248,-0.094850,1,1,0
2335,59,-0.548196,-0.071103,0.174148,-0.113051,1,1,0
2339,59,-0.556016,0.091366,0.064329,-0.168056,1,1,0
2353,59,-0.617010,0.051912,-0.108033,-0.061015,1,1,0
2352,59,-0.533543,0.063864,-0.122591,-0.012270,1,1,0
2323,59,-0.621822,-0.003807,0.156436,-0.158888,1,1,0
2359,59,-0.597424,0.000453,-0.104572,-0.123624,1,1,0
2354,59,-0.624389,-0.046713,-0.205403,-0.069776,1,1,0
2334,59,-0.660313,0.069766,0.133523,-0.240492,1,1,0
2333,59,-0.676988,-0.000327,0.101652,-0.180419,1,1,0
2337,59,-0.561852,0.080278,0.111643,-0.148037,1,1,0
2342,59,-0.580151,-0.019142,-0.134153,-0.044379,1,1,0
2340,59,-0.631764,0.089989,-0.030058,-0.149705,1,1,0
2325,59,-0.548546,0.051833,0.047641,-0.206522,1,1,0
2338,59,-0.545967,0.052374,0.036777,-0.181655,1,1,0
2357,59,-0.619261,0.019419,-0.140101,-0.137009,1,1,0
2327,59,-0.494595,-0.049336,-0.011664,-0.281356,1,1,0
2343,59,-0.511382,-0.090514,-0.174695,-0.157145,1,1,0
2320,59,-0.616024,-0.029989,0.120346,-0.169973,1,1,0
2341,59,-0.587447,-0.019047,-0.124032,-0.120436,1,1,0
2356,59,-0.512638,0.012305,-0.065027,-0.153823,1,1,0
2345,59,-0.609666,-0.022354,-0.075804,-0.119774,1,1,0
2321,59,-0.584319,0.069735,0.100330,-0.223229,1,1,0
2322,59,-0.541994,0.009306,0.098928,-0.186884,1,1,0
2336,59,-0.487888,0.079950,0.034774,-0.229489,1,1,0
2349,59,-0.542441,-0.038844,-0.150274,-0.160569,1,1,0
2329,59,-0.629359,0.004858,0.049585,-0.182383,1,1,0
2348,59,-0.561038,-0.059093,-0.088882,-0.091357,1,1,0
2328,59,-0.700827,0.028013,0.043646,-0.192340,1,1,0
2358,59,-0.490134,-0.040315,-0.110436,-0.048125,1,1,0
2344,59,-0.544945,-0.031060,-0.108133,0.012722,1,1,0
2350,59,-0.565746,-0.003358,-0.068109,-0.071816,1,1,0
2331,59,-0.562076,0.044498,0.087411,-0.246207,1,1,0
2332,59,-0.532713,0.021512,0.133956,-0.202039,1,1,0
2326,59,-0.556616,0.060547,0.094380,-0.225880,1,1,0
2362,60,-0.527257,0.043524,0.090054,-0.204285,1,1,0
2384,60,-0.528490,-0.008941,-0.171266,-0.133932,1,1,0
2372,60,-0.591906,0.005148,0.086979,-0.269440,1,1,0
2389,60,-0.571742,-0.025572,-0.104250,-0.106511,1,1,0
2391,60,-0.629386,-0.032476,-0.049278,-0.076488,1,1,0
2371,60,-0.561575,-0.086256,0.053117,-0.243550,1,1,0
2383,60,-0.571210,0.021389,-0.111707,-0.036011,1,1,0
2361,60,-0.605663,0.014594,0.090345,-0.252348,1,1,0
2379,60,-0.615387,0.029442,0.055589,-0.128573,1,1,0
2373,60,-0.585681,0.051702,0.045034,-0.166141,1,1,0
2369,60,-0.503069,0.042238,0.034761,-0.182590,1,1,0
2367,60,-0.587225,0.096498,0.103280,-0.174834,1,1,0
2368,60,-0.672089,-0.000695,0.065657,-0.220066,1,1,0
2363,60,-0.606447,0.016498,0.107445,-0.269398,1,1,0
2375,60,-0.541973,0.040479,0.038241,-0.148060,1,1,0
2396,60,-0.586453,-0.081430,-0.173831,-0.161802,1,1,0
2360,60,-0.466763,-0.014531,0.154738,-0.210817,1,1,0
2377,60,-0.594736,0.059974,-0.027575,-0.219408,1,1,0
2364,60,-0.565630,0.043344,0.070381,-0.246669,1,1,0
2376,60,-0.501276,-0.009775,0.137813,-0.256481,1,1,0
2395,60,-0.616610,0.004384,-0.149912,-0.207739,1,1,0
2399,60,-0.512390,-0.095520,-0.105117,-0.119786,1,1,0
2390,60,-0.554264,0.004660,-0.093245,-0.067983,1,1,0
2374,60,-0.657256,0.075829,0.015723,-0.222469,1,1,0
2366,60,-0.571880,0.030481,0.044167,-0.204878,1,1,0
2388,60,-0.486709,0.006225,-0.187402,-0.078336,1,1,0
2370,60,-0.572614,0.037027,-0.032481,-0.083996,1,1,0
2378,60,-0.600659,0.058927,0.088390,-0.120098,1,1,0
2386,60,-0.466886,0.010626,-0.162404,-0.026542,1,1,0
2385,60,-0.555741,-0.045236,-0.134938,-0.054589,1,1,0
2380,60,-0.598942,0.006920,-0.156352,0.006541,1,1,0
2387,60,-0.596605,-0.080088,-0.119892,-0.095962,1,1,0
2394,60,-0.528774,0.014616,-0.053667,-0.077846,1,1,0
2365,60,-0.508080,-0.012008,0.137617,-0.148840,1,1,0
2397,60,-0.433910,0.078729,-0.324427,-0.076184,0,1,0
2398,60,-0.469235,0.015708,-0.112181,-0.107936,1,1,0
2393,60,-0.533431,-0.126493,-0.146549,-0.138482,0,1,0
2382,60,-0.589390,-0.036478,-0.139189,-0.164036,1,1,0
2392,60,-0.613756,0.005979,-0.072799,-0.101082,1,1,0
2381,60,-0.574212,-0.003453,-0.061630,-0.076622,1,1,0
2416,61,-0.577159,0.009061,0.027650,-0.187591,1,1,0
2401,61,-0.488911,0.001762,0.063475,-0.272550,1,1,0
2431,61,-0.518115,0.025276,-0.087127,-0.067211,1,1,0
2411,61,-0.502427,-0.042072,0.146356,-0.214957,1,1,0
2414,61,-0.627020,-0.020695,0.118080,-0.227424,1,1,0
2418,61,-0.421626,-0.044224,0.016301,-0.187078,1,1,0
2424,61,-0.600232,-0.007732,-0.069407,-0.276407,1,1,0
2437,61,-0.583443,-0.071955,-0.039592,-0.037658,1,1,0
2422,61,-0.572663,0.148336,-0.043468,-0.099015,1,1,0
2410,61,-0.622847,0.074976,0.128775,-0.221638,1,1,0
2433,61,-0.570178,0.015295,-0.133677,-0.223491,1,1,0
2407,61,-0.560477,0.055681,0.052426,-0.214133,1,1,0
2408,61,-0.556142,0.064516,0.047671,-0.118526,1,1,0
2438,61,-0.475063,0.017299,-0.079336,-0.087104,1,1,0
2400,61,-0.591878,0.045890,0.036175,-0.208194,1,1,0
2420,61,-0.606142,-0.028315,-0.143056,-0.125914,1,1,0
2427,61,-0.595930,-0.024871,-0.121558,-0.111994,1,1,0
2434,61,-0.566509,0.076516,-0.112740,-0.114960,1,1,0
2421,61,-0.594225,-0.024165,-0.124926,-0.137910,1,1,0
2403,61,-0.593120,0.059078,0.134665,-0.148507,1,1,0
2435,61,-0.604746,-0.062959,-0.078557,-0.104487,1,1,0
2439,61,-0.581034,-0.042622,-0.100122,-0.094156,1,1,0
2417,61,-0.589501,0.057287,0.074101,-0.117156,1,1,0
2412,61,-0.580854,0.094151,0.022153,-0.160960,1,1,0
2404,61,-0.566494,0.013992,0.142702,-0.176520,1,1,0
2423,61,-0.557130,-0.041321,-0.069421,-0.154626,1,1,0
2425,61,-0.597405,0.013515,-0.100225,-0.181244,1,1,0
2406,61,-0.675356,-0.033684,0.053758,-0.207399,1,1,0
2419,61,-0.665740,0.042337,0.159475,-0.184002,1,1,0
2432,61,-0.501387,0.015230,-0.195678,-0.076880,1,1,0
2415,61,-0.607089,-0.039337,0.049637,-0.181525,1,1,0
2402,61,-0.551070,0.045881,0.074249,-0.284799,1,1,0
2436,61,-0.570341,-0.069674,-0.066825,-0.114645,1,1,0
2413,61,-0.656456,0.029926,0.186181,-0.181553,1,1,0
2429,61,-0.549354,-0.064719,-0.006013,-0.002486,1,1,0
2430,61,-0.655478,-0.110483,-0.128787,-0.193686,0,1,0
2409,61,-0.593823,0.097451,0.126860,-0.234066,1,1,0
2405,61,-0.544398,-0.016884,0.118696,-0.186176,1,1,0
2426,61,-0.471780,-0.005407,-0.053040,-0.171309,1,1,0
2428,61,-0.560906,0.015492,-0.038976,-0.107533,1,1,0
2468,62,-0.575726,-0.004159,-0.204702,-0.110935,1,1,0
2449,62,-0.505533,0.053993,0.033105,-0.053219,1,1,0
2471,62,-0.570627,-0.048979,-0.134718,-0.151056,1,1,0
2475,62,-0.517560,-0.097696,-0.122531,-0.096602,1,1,0
2467,62,-0.591179,-0.064917,-0.110073,-0.112318,1,1,0
2466,62,-0.614079,-0.119518,-0.122229,-0.159795,1,1,0
2474,62,-0.643497,0.016144,-0.067037,-0.062054,1,1,0
2450,62,-0.542189,0.025933,0.110240,-0.164144,1,1,0
2446,62,-0.551845,0.073540,0.056523,-0.109936,1,1,0
2454,62,-0.538783,0.078459,0.002610,-0.072698,1,1,0
2456,62,-0.539093,0.003916,0.010722,-0.094766,1,1,0
2459,62,-0.611176,0.025212,0.035113,-0.017163,1,1,0
2464,62,-0.588198,0.010090,-0.167198,-0.103828,1,1,0
2470,62,-0.548836,-0.004462,-0.083837,-0.148874,1,1,0
2460,62,-0.643610,0.000826,-0.042678,-0.001246,1,1,0
2473,62,-0.604574,-0.017899,-0.165428,0.012572,1,1,0
2452,62,-0.551782,0.070219,-0.000472,-0.131433,1,1,0
2445,62,-0.609103,0.095212,0.056238,-0.085054,1,1,0
2462,62,-0.545011,-0.022121,-0.146325,-0.050704,1,1,0
2451,62,-0.592363,-0.066566,0.094377,-0.066586,1,1,0
2447,62,-0.579727,0.033364,0.009082,-0.078866,1,1,0
2469,62,-0.577267,-0.031846,-0.063802,-0.136087,1,1,0
2458,62,-0.557253,-0.043946,0.100363,-0.125723,1,1,0
2455,62,-0.576726,-0.046010,0.044748,-0.070487,1,1,0
2472,62,-0.534406,-0.023095,-0.103960,-0.162148,1,1,0
2476,62,-0.596877,0.094756,-0.070091,-0.070557,1,1,0
2478,62,-0.581198,-0.068210,-0.045477,-0.163861,1,1,0
2441,62,-0.591476,-0.030911,0.042669,-0.111615,1,1,0
2440,62,-0.540218,0.028573,0.104874,-0.096461,1,1,0
2448,62,-0.622230,0.024331,0.019726,-0.145589,1,1,0
2457,62,-0.650119,0.055744,0.117331,-0.094343,1,1,0
2479,62,-0.571103,-0.027353,-0.158117,-0.061515,1,1,0
2444,62,-0.528790,0.011838,0.117714,-0.065857,1,1,0
2461,62,-0.499431,-0.098908,-0.157544,-0.110595,1,1,0
2442,62,-0.638479,0.077941,-0.007076,-0.028610,1,1,0
2465,62,-0.432330,-0.050426,-0.089031,-0.162449,0,1,0
2443,62,-0.470443,-0.040716,0.061839,-0.093646,1,1,0
2463,62,-0.603436,-0.091726,-0.128447,0.031686,1,1,0
2477,62,-0.625057,0.009994,-0.122749,-0.135650,1,1,0
2453,62,-0.619413,0.025449,-0.011209,-0.035496,1,1,0
2494,63,-0.583758,0.028458,0.082771,-0.060562,1,1,0
2501,63,-0.608450,-0.052720,-0.187389,-0.057397,1,1,0
2516,63,-0.594923,-0.007365,-0.107766,-0.099090,1,1,0
2509,63,-0.546164,-0.080912,-0.168605,-0.028195,1,1,0
2498,63,-0.580226,0.000066,0.047969,-0.037365,1,1,0
2503,63,-0.620131,-0.102980,-0.150545,-0.134556,1,1,0
2481,63,-0.645147,0.016645,-0.001747,-0.118210,1,1,0
2485,63,-0.501234,0.011520,-0.040926,-0.041056,1,1,0
2500,63,-0.631524,-0.017039,-0.207033,-0.090677,1,1,0
2504,63,-0.578302,0.025016,-0.155726,-0.076766,1,1,0
2510,63,-0.511295,-0.003389,-0.126483,-0.106840,1,1,0
2489,63,-0.688478,0.009038,0.071771,-0.098979,1,1,0
2517,63,-0.503234,-0.046807,-0.173447,-0.124221,1,1,0
2507,63,-0.584303,-0.068894,-0.189824,-0.045989,1,1,0
2486,63,-0.628000,-0.085537,0.124595,-0.015871,1,1,0
2506,63,-0.565654,-0.114232,-0.129415,-0.054701,1,1,0
2488,63,-0.551688,-0.039656,0.042692,-0.070247,1,1,0
2495,63,-0.655334,0.029226,0.097298,-0.111931,1,1,0
2519,63,-0.535049,0.041812,-0.094155,-0.127580,1,1,0
2513,63,-0.531169,-0.038161,-0.157211,-0.143443,1,1,0
2491,63,-0.639556,0.152364,0.030998,-0.064263,1,0,0
2492,63,-0.496961,0.050435,0.049286,-0.110930,1,1,0
2514,63,-0.549780,-0.035461,-0.153870,-0.138037,1,1,0
2505,63,-0.464926,0.091065,-0.128510,-0.062159,1,1,0
2499,63,-0.659811,0.039398,0.014746,-0.117154,1,1,0
2497,63,-0.513542,0.065725,0.000589,-0.202939,1,1,0
2508,63,-0.429757,-0.152698,-0.145841,-0.035913,0,1,0
2496,63,-0.584972,0.013296,0.063055,-0.108257,1,1,0
2493,63,-0.638777,-0.058329,0.103182,-0.137022,1,1,0
2512,63,-0.593572,0.042043,-0.080974,-0.102951,1,1,0
2480,63,-0.488697,0.023212,0.121111,-0.073119,1,1,0
2484,63,-0.543612,-0.067770,0.090581,-0.145322,1,1,0
2515,63,-0.557538,0.017641,-0.114292,-0.024395,1,1,0
2487,63,-0.598062,0.042481,0.021559,-0.000352,1,1,0
2482,63,-0.623789,-0.005701,0.085762,-0.115848,1,1,0
2490,63,-0.505709,0.021526,0.082063,-0.188982,1,1,0
2518,63,-0.535376,-0.074369,-0.089066,-0.070340,1,1,0
2483,63,-0.586460,-0.086889,0.011593,-0.037334,1,1,0
2502,63,-0.528641,-0.031410,-0.104975,-0.072544,1,1,0
2511,63,-0.615096,0.049358,-0.162679,-0.087151,1,1,0
2537,64,-0.644996,0.058628,-0.030833,-0.103972,1,1,0
2521,64,-0.650389,0.007050,0.015426,-0.200314,1,1,0
2538,64,-0.551413,0.049074,0.017945,-0.135528,1,1,0
2552,64,-0.550291,-0.062712,-0.079011,-0.146440,1,1,0
2551,64,-0.511667,-0.030589,-0.096037,-0.161291,1,1,0
2545,64,-0.556953,-0.028961,-0.003239,-0.059892,1,1,0
2533,64,-0.600792,0.089032,0.061825,-0.012672,1,1,0
2547,64,-0.542857,0.005675,-0.009035,-0.044397,1,1,0
2539,64,-0.571413,0.138981,0.144643,-0.006741,1,0,0
2535,64,-0.564542,0.020545,0.097105,-0.116388,1,1,0
2523,64,-0.630192,-0.039861,0.028858,-0.166113,1,1,0
2525,64,-0.573082,0.039680,0.047902,-0.121983,1,1,0
2540,64,-0.624809,0.000169,-0.005153,-0.124843,1,1,0
2555,64,-0.494456,-0.052722,-0.065969,-0.126232,1,1,0
2548,64,-0.622295,-0.005846,0.021533,-0.167398,1,1,0
2557,64,-0.615036,0.021338,-0.111968,-0.146579,1,1,0
2527,64,-0.560685,-0.011216,-0.043052,-0.134000,1,1,0
2554,64,-0.486583,-0.087216,-0.097741,-0.145982,1,1,0
2531,64,-0.606000,0.130408,0.023697,-0.185321,1,0,0
2524,64,-0.689855,0.074372,0.081755,-0.122621,1,0,0
2536,64,-0.540035,0.003217,0.059661,-0.094595,1,1,0
2543,64,-0.582373,-0.113475,-0.229881,-0.147381,1,1,0
2556,64,-0.553116,-0.005616,-0.104336,-0.125029,1,1,0
2559,64,-0.573316,-0.016249,0.086419,-0.091150,1,1,0
2558,64,-0.540904,0.000258,0.043879,-0.064990,1,1,0
2549,64,-0.479451,-0.054962,-0.018488,-0.235670,1,1,0
2520,64,-0.701851,-0.051131,0.003480,-0.153473,1,1,0
2526,64,-0.612724,-0.000601,0.021971,-0.014545,1,1,0
2550,64,-0.482927,0.002826,-0.032757,-0.128181,1,1,0
2546,64,-0.602157,0.029547,-0.013742,-0.155717,1,1,0
2544,64,-0.566515,0.054958,-0.082014,-0.145172,1,1,0
2542,64,-0.601290,-0.003278,-0.078373,-0.104855,1,1,0
2532,64,-0.594941,0.038404,0.030774,-0.072820,1,1,0
2528,64,-0.636982,0.059096,-0.029346,-0.246894,1,1,0
2522,64,-0.540977,0.079217,0.038033,-0.137362,1,1,0
2553,64,-0.509192,-0.098872,-0.020913,-0.160288,1,1,0
2534,64,-0.663383,0.003340,0.114781,-0.131371,1,1,0
2529,64,-0.552151,0.062258,0.111120,-0.162176,1,1,0
2530,64,-0.592350,0.011489,-0.008139,-0.126850,1,1,0
2541,64,-0.544864,0.023058,-0.070808,-0.055687,1,1,0
2576,65,-0.562313,-0.004808,0.067394,-0.157973,1,1,0
2577,65,-0.560137,0.046276,-0.007604,-0.116483,1,1,0
2596,65,-0.535999,0.000586,-0.006582,-0.172757,1,1,0
2587,65,-0.516694,-0.059513,-0.025836,-0.131338,1,1,0
2595,65,-0.589356,0.011217,0.033092,-0.068571,1,1,0
2592,65,-0.600366,0.019426,0.030628,-0.136387,1,1,0
2594,65,-0.532709,-0.004851,-0.016372,-0.290104,1,1,0
2565,65,-0.665891,0.009679,0.155653,0.012773,1,1,0
2593,65,-0.516268,0.058057,-0.065106,-0.184536,1,1,0
2563,65,-0.513944,0.111951,-0.007958,-0.008746,1,1,0
2586,65,-0.488329,-0.004172,-0.025310,-0.134612,1,1,0
2583,65,-0.614937,-0.125887,0.012366,-0.135999,0,1,0
2566,65,-0.686738,0.052404,0.077264,-0.111001,1,1,0
2578,65,-0.505440,0.099783,0.013339,-0.133336,1,1,0
2569,65,-0.525161,0.046778,0.015122,-0.151992,1,1,0
2570,65,-0.639636,0.028397,0.078402,-0.046642,1,1,0
2573,65,-0.621290,0.069219,-0.001700,-0.011213,1,1,0
2572,65,-0.680091,0.033373,0.107112,-0.133459,1,1,0
2585,65,-0.533174,-0.092283,0.005771,-0.158081,1,1,0
2599,65,-0.560015,0.025338,-0.094402,-0.075988,1,1,0
2568,65,-0.557677,-0.000236,-0.001569,-0.093693,1,1,0
2564,65,-0.635543,-0.004239,-0.014064,-0.098231,1,1,0
2581,65,-0.622143,0.033211,-0.038577,-0.044454,1,1,0
2567,65,-0.644903,0.147597,0.091873,-0.116033,1,0,0
2582,65,-0.658187,0.015301,0.016461,-0.200737,1,1,0
2590,65,-0.554323,-0.064798,-0.048838,-0.075425,1,1,0
2598,65,-0.567507,-0.030715,-0.031581,-0.134958,1,1,0
2584,65,-0.624964,-0.117995,-0.061819,-0.108865,1,1,0
2579,65,-0.592154,0.049342,0.108924,-0.115785,1,1,0
2580,65,-0.608791,-0.044249,-0.100471,-0.209633,1,1,0
2560,65,-0.609502,0.067285,0.098789,-0.056336,1,1,0
2597,65,-0.487561,-0.085765,-0.048036,-0.189437,1,1,0
2588,65,-0.558544,0.001479,-0.104765,-0.195880,1,1,0
2571,65,-0.610497,0.055327,0.040533,-0.185316,1,1,0
2574,65,-0.604158,0.048287,0.055445,-0.065593,1,1,0
2591,65,-0.514785,0.018229,-0.048026,-0.040330,1,1,0
2575,65,-0.583193,0.004395,0.045479,-0.225062,1,1,0
2562,65,-0.640589,0.062268,0.043082,-0.079148,1,1,0
2589,65,-0.560572,-0.022279,-0.052312,-0.166958,1,1,0
2561,65,-0.453236,-0.003634,0.059392,-0.261357,1,1,0
2621,66,-0.524390,-0.083782,-0.115606,-0.159659,1,1,0
2607,66,-0.591454,-0.011265,0.085146,-0.020866,1,1,0
2604,66,-0.516082,0.025286,0.037576,-0.179697,1,1,0
2626,66,-0.493331,0.055361,-0.016823,-0.032598,1,1,0
2628,66,-0.603655,-0.103508,-0.092509,-0.206535,1,1,0
2639,66,-0.569996,-0.011634,0.009348,-0.163872,1,1,0
2629,66,-0.591068,-0.063041,-0.097315,-0.130834,1,1,0
2636,66,-0.565995,-0.030665,-0.077221,-0.097135,1,1,0
2622,66,-0.488584,0.003261,-0.051327,-0.205513,1,1,0
2619,66,-0.583846,-0.011427,-0.028093,-0.155558,1,1,0
2605,66,-0.522959,0.027095,0.070401,-0.157589,1,1,0
2602,66,-0.552864,0.094365,0.035235,-0.108360,1,1,0
2612,66,-0.542689,-0.000244,0.059567,-0.128271,1,1,0
2630,66,-0.590958,-0.060842,0.020655,-0.117467,1,1,0
2627,66,-0.570025,-0.021488,-0.023497,-0.197836,1,1,0
2615,66,-0.602558,0.051038,-0.036317,-0.113837,1,1,0
2624,66,-0.613347,0.058958,-0.005060,-0.166149,1,1,0
2637,66,-0.528651,0.006448,-0.057910,-0.185732,1,1,0
2603,66,-0.503804,-0.096041,0.118284,-0.100718,1,1,0
2623,66,-0.503789,-0.035273,-0.117693,-0.147317,1,1,0
2609,66,-0.613620,0.047720,0.014335,-0.112316,1,1,0
2613,66,-0.603973,-0.006486,0.086352,-0.133222,1,1,0
2620,66,-0.620897,0.001551,-0.102384,-0.196665,1,1,0
2625,66,-0.599020,-0.061610,-0.111447,-0.052529,1,1,0
2635,66,-0.558546,-0.089782,-0.032522,-0.094349,1,1,0
2610,66,-0.685315,0.026811,0.027110,-0.092133,1,1,0
2632,66,-0.598802,0.005659,-0.086514,-0.137495,1,1,0
2608,66,-0.632057,0.051629,0.099101,-0.078986,1,1,0
2601,66,-0.565004,-0.040922,0.106138,-0.160854,1,1,0
2633,66,-0.569457,-0.101950,-0.023044,-0.199978,1,1,0
2634,66,-0.578440,0.039736,-0.031815,-0.193290,1,1,0
2614,66,-0.569830,0.013527,0.109266,-0.103353,1,1,0
2638,66,-0.606429,-0.034498,-0.085260,-0.071358,1,1,0
2631,66,-0.529159,-0.038953,-0.078873,-0.201075,1,1,0
2600,66,-0.712367,-0.022526,0.056419,-0.043058,1,0,0
2618,66,-0.517355,0.015457,0.088932,-0.172149,1,1,0
2617,66,-0.601428,0.060459,-0.011437,-0.096147,1,1,0
2616,66,-0.636170,-0.036360,0.030651,-0.125873,1,1,0
2606,66,-0.634950,0.081766,0.082147,-0.105195,1,1,0
2611,66,-0.604252,0.065489,0.057392,-0.078161,1,1,0
2671,67,-0.536456,-0.090895,-0.083089,-0.168246,1,1,0
2665,67,-0.529740,-0.010410,-0.086189,-0.182962,1,1,0
2650,67,-0.568253,-0.020739,-0.014823,-0.050942,1,1,0
2673,67,-0.565018,-0.006591,-0.023713,-0.110246,1,1,0
2668,67,-0.524573,-0.114900,-0.022778,-0.092371,1,1,0
2679,67,-0.548757,-0.040022,-0.116716,-0.165127,1,1,0
2656,67,-0.633725,-0.002755,0.063358,-0.152083,1,1,0
2646,67,-0.632374,0.010543,0.013536,-0.111752,1,1,0
2657,67,-0.491425,0.010718,-0.046077,-0.099984,1,1,0
2676,67,-0.666438,0.008130,-0.062312,-0.141954,1,1,0
2678,67,-0.626691,0.029526,-0.045173,-0.180811,1,1,0
2654,67,-0.553908,-0.002553,-0.051796,-0.097127,1,1,0
2672,67,-0.613683,0.027026,-0.051516,-0.129642,1,1,0
2647,67,-0.544626,0.063652,0.110207,-0.126390,1,1,0
2653,67,-0.589106,0.034423,-0.007841,-0.033150,1,1,0
2663,67,-0.556063,-0.070667,0.006456,-0.183089,1,1,0
2664,67,-0.452564,-0.086921,-0.090962,-0.085756,0,1,0
2662,67,-0.558540,-0.070302,-0.010959,-0.123323,1,1,0
2675,67,-0.537161,-0.028102,-0.160556,-0.173955,1,1,0
2648,67,-0.591214,-0.060214,0.001751,-0.076613,1,1,0
2670,67,-0.618687,-0.030714,-0.052740,-0.119410,1,1,0
2652,67,-0.636773,-0.032725,0.080075,-0.125059,1,1,0
2669,67,-0.547867,0.036005,0.076448,-0.020098,1,1,0
2641,67,-0.588063,-0.039865,0.024355,-0.115029,1,1,0
2660,67,-0.570434,0.039840,-0.076731,-0.109152,1,1,0
2649,67,-0.649243,0.030583,0.108216,-0.084404,1,1,0
2661,67,-0.547868,-0.108251,-0.092733,-0.098553,1,1,0
2677,67,-0.532840,0.063157,-0.133451,-0.179005,1,1,0
2640,67,-0.510542,-0.016412,0.045899,-0.135352,1,1,0
2666,67,-0.633750,0.054713,0.002104,-0.160610,1,1,0
2658,67,-0.549541,-0.014827,0.083976,-0.080350,1,1,0
2643,67,-0.563904,0.045764,0.055404,-0.089630,1,1,0
2644,67,-0.544832,0.127577,-0.060580,-0.146311,1,1,0
2667,67,-0.551642,-0.072818,-0.056866,-0.145272,1,1,0
2655,67,-0.477946,0.138068,0.004122,-0.190184,1,0,0
2645,67,-0.645774,0.048827,0.059357,-0.151089,1,1,0
2659,67,-0.662090,-0.016965,0.098863,-0.140284,1,1,0
2642,67,-0.548834,-0.000003,0.058204,-0.076369,1,1,0
2674,67,-0.542225,-0.039779,-0.037217,-0.171105,1,1,0
2651,67,-0.656672,0.056543,0.064426,-0.112391,1,1,0
2689,68,-0.623435,-0.001672,0.068200,-0.093573,1,1,0
2690,68,-0.538308,0.120798,0.119672,-0.033268,1,1,0
2707,68,-0.491038,0.031486,-0.011512,-0.147958,1,1,0
2719,68,-0.585455,-0.031732,0.007931,-0.132189,1,1,0
2705,68,-0.555318,0.007687,-0.012064,-0.108953,1,1,0
2701,68,-0.477423,-0.001048,-0.025098,-0.133621,1,1,0
2706,68,-0.572704,-0.004334,-0.033085,-0.085210,1,1,0
2682,68,-0.629386,-0.012674,-0.002500,-0.113141,1,1,0
2696,68,-0.538128,0.028871,0.121934,-0.018708,1,1,0
2680,68,-0.578698,0.063920,0.058364,-0.135727,1,1,0
2684,68,-0.637915,-0.027209,0.045003,-0.019980,1,1,0
2685,68,-0.555828,-0.057429,0.039043,-0.126495,1,1,0
2718,68,-0.574866,-0.031878,-0.046701,-0.265688,1,1,0
2715,68,-0.590222,-0.066476,-0.064426,-0.185067,1,1,0
2704,68,-0.532617,-0.034738,-0.031479,-0.068966,1,1,0
2699,68,-0.578871,-0.102047,0.119104,-0.179550,1,1,0
2713,68,-0.470088,-0.035287,-0.025940,-0.186010,1,1,0
2686,68,-0.617317,0.027091,0.095767,-0.110840,1,1,0
2694,68,-0.633807,0.036141,0.125545,-0.058637,1,1,0
2702,68,-0.592138,-0.104029,-0.104167,-0.147290,1,1,0
2697,68,-0.600729,0.077985,0.066325,-0.038740,1,1,0
2681,68,-0.662457,-0.009634,0.045042,-0.088744,1,1,0
2691,68,-0.561326,0.131281,0.006675,-0.193399,1,1,0
2700,68,-0.576857,-0.061832,-0.027983,-0.158346,1,1,0
2698,68,-0.508191,0.055630,0.079492,-0.012206,1,1,0
2695,68,-0.513106,-0.045876,0.107413,-0.103583,1,1,0
2687,68,-0.605037,0.023708,0.060028,-0.144225,1,1,0
2708,68,-0.581343,-0.041350,-0.081112,-0.146109,1,1,0
2717,68,-0.521501,0.017863,-0.113947,-0.205948,1,1,0
2711,68,-0.608710,-0.038184,-0.084064,-0.155725,1,1,0
2710,68,-0.528895,-0.032319,-0.007992,-0.178134,1,1,0
2688,68,-0.620805,-0.019396,0.009022,-0.137683,1,1,0
2692,68,-0.586932,-0.012235,0.081071,-0.143260,1,1,0
2714,68,-0.518432,-0.046046,0.018252,-0.170879,1,1,0
2703,68,-0.548756,-0.045346,0.010281,-0.175142,1,1,0
2693,68,-0.626506,-0.006032,0.099303,-0.010455,1,1,0
2683,68,-0.588833,0.046970,0.033471,-0.048273,1,1,0
2712,68,-0.517894,-0.095795,0.009783,-0.159402,1,1,0
2716,68,-0.627092,-0.006823,0.009029,-0.113660,1,1,0
2709,68,-0.652068,-0.022471,0.041912,-0.142048,1,1,0
2747,69,-0.617586,-0.075882,-0.016015,-0.160069,1,1,0
2729,69,-0.611958,0.013475,0.008998,-0.086320,1,1,0
2733,69,-0.517687,0.069105,0.077794,-0.117263,1,1,0
2720,69,-0.602328,0.077419,0.069150,-0.122700,1,1,0
2741,69,-0.553120,-0.024175,-0.050546,-0.229162,1,1,0
2748,69,-0.530716,-0.001029,-0.040354,-0.129890,1,1,0
2744,69,-0.531248,-0.061367,-0.072481,-0.224534,1,1,0
2751,69,-0.612369,0.062502,0.044153,-0.212449,1,1,0
2750,69,-0.536487,-0.107826,-0.121893,-0.140680,1,1,0
2731,69,-0.589210,-0.007904,0.045761,-0.084868,1,1,0
2725,69,-0.587565,-0.053307,0.094873,-0.173721,1,1,0
2746,69,-0.498883,0.027866,-0.070477,-0.166637,1,1,0
2737,69,-0.579737,0.042293,0.082655,-0.121778,1,1,0
2721,69,-0.596717,0.060787,0.069491,-0.130064,1,1,0
2728,69,-0.537304,-0.080107,0.074485,-0.119169,1,1,0
2727,69,-0.520724,0.056871,0.131473,-0.144659,1,1,0
2753,69,-0.555129,-0.005762,-0.055752,-0.111341,1,1,0
2756,69,-0.583623,0.001618,-0.095220,-0.204527,1,1,0
2754,69,-0.576980,0.022297,0.019514,-0.211782,1,1,0
2749,69,-0.555313,-0.011804,-0.022623,-0.044516,1,1,0
2735,69,-0.712094,0.042235,0.087550,-0.206480,1,0,0
2759,69,-0.491251,-0.083767,-0.092527,-0.189146,1,1,0
2734,69,-0.546820,0.012512,-0.036603,-0.022959,1,1,0
2724,69,-0.565161,0.110239,-0.016862,-0.092967,1,1,0
2758,69,-0.593939,0.012166,-0.047844,-0.111982,1,1,0
2736,69,-0.555736,0.139279,0.063537,-0.127771,1,0,0
2738,69,-0.615736,0.063794,0.009131,-0.051341,1,1,0
2722,69,-0.619698,0.076833,0.000068,-0.153313,1,1,0
2730,69,-0.552426,0.066330,0.090416,-0.183492,1,1,0
2739,69,-0.530848,0.019634,0.094023,-0.081317,1,1,0
2743,69,-0.568141,0.023363,-0.021117,-0.160483,1,1,0
2740,69,-0.486186,-0.005082,-0.072555,-0.229903,1,1,0
2726,69,-0.613911,0.033475,0.056754,-0.070940,1,1,0
2745,69,-0.576195,0.015643,-0.104891,-0.180599,1,1,0
2752,69,-0.557234,-0.048183,-0.133558,-0.112824,1,1,0
2755,69,-0.591727,-0.007517,-0.012989,-0.181166,1,1,0
2723,69,-0.553816,-0.010066,-0.019118,-0.133078,1,1,0
2742,69,-0.507198,-0.009844,0.051750,-0.197517,1,1,0
2732,69,-0.542396,-0.022292,0.039113,-0.156186,1,1,0
2757,69,-0.611333,0.125998,-0.157831,-0.192156,1,1,0
2770,70,-0.572709,0.004974,0.086119,-0.102241,1,1,0
2796,70,-0.474616,-0.056942,-0.090737,-0.161610,1,1,0
2789,70,-0.502293,-0.017858,-0.010501,-0.117043,1,1,0
2763,70,-0.601987,-0.052124,0.181293,-0.089104,1,1,0
2783,70,-0.658157,-0.068581,-0.073932,-0.201956,1,1,0
2773,70,-0.625435,0.090583,0.046375,-0.103138,1,1,0
2786,70,-0.516084,0.086716,-0.078281,-0.139313,1,1,0
2774,70,-0.602471,-0.000591,0.070008,-0.090741,1,1,0
2772,70,-0.573882,0.022730,0.078304,-0.013755,1,1,0
2761,70,-0.517029,-0.013966,0.034110,-0.150015,1,1,0
2788,70,-0.612872,-0.016343,0.005564,-0.233866,1,1,0
2781,70,-0.635177,0.071021,0.017112,-0.120085,1,1,0
2762,70,-0.647065,0.019380,0.076002,-0.143250,1,1,0
2785,70,-0.590913,-0.048368,-0.099891,-0.136488,1,1,0
2764,70,-0.558806,-0.008481,-0.033526,-0.091894,1,1,0
2792,70,-0.553906,-0.009163,-0.067189,-0.114791,1,1,0
2793,70,-0.431937,-0.088216,-0.019674,-0.190308,0,1,0
2799,70,-0.644128,-0.079414,-0.043661,-0.093770,1,1,0
2787,70,-0.608602,0.019917,-0.092015,-0.188665,1,1,0
2769,70,-0.533698,0.115442,0.051229,-0.120882,1,1,0
2795,70,-0.554663,-0.028801,-0.075039,-0.082884,1,1,0
2775,70,-0.557685,0.074385,0.067263,-0.145921,1,1,0
2771,70,-0.512887,0.019209,-0.006293,-0.036847,1,1,0
2767,70,-0.572714,0.178595,-0.020516,-0.099679,1,0,0
2782,70,-0.568922,-0.043234,-0.000402,-0.201818,1,1,0
2777,70,-0.513023,0.112738,0.016817,-0.047408,1,1,0
2791,70,-0.668170,-0.029558,-0.086991,-0.023124,1,1,0
2778,70,-0.472518,0.026930,0.074534,-0.147229,1,1,0
2766,70,-0.576269,-0.009792,0.023531,-0.096882,1,1,0
2768,70,-0.559905,0.025649,0.093287,-0.041613,1,1,0
2765,70,-0.600680,0.088832,0.017171,-0.066036,1,1,0
2790,70,-0.531219,0.032156,-0.016827,-0.198478,1,1,0
2798,70,-0.539671,0.010760,-0.171482,-0.161416,1,1,0
2794,70,-0.514527,-0.069236,0.012093,-0.241236,1,1,0
2784,70,-0.471872,-0.073147,-0.052244,-0.119787,1,1,0
2797,70,-0.603257,-0.045820,0.060809,-0.090198,1,1,0
2779,70,-0.592791,0.035397,0.132364,-0.109046,1,1,0
2776,70,-0.605881,-0.003015,0.119015,-0.052914,1,1,0
2760,70,-0.576446,0.098640,0.053497,-0.163655,1,1,0
2780,70,-0.476540,0.141356,-0.016995,-0.099457,0,1,0
2835,71,-0.544046,0.058347,-0.098955,-0.174144,1,1,0
2839,71,-0.547546,0.013929,-0.010113,-0.189559,1,1,0
2813,71,-0.586866,0.034082,0.072595,-0.174905,1,1,0
2838,71,-0.508338,-0.040155,-0.051925,-0.185436,1,1,0
2833,71,-0.472896,-0.089634,-0.054726,-0.102581,0,1,0
2837,71,-0.569534,0.014487,-0.137008,-0.206061,1,1,0
2808,71,-0.621248,0.090012,0.022232,-0.098225,1,1,0
2807,71,-0.626859,-0.043736,0.041485,-0.075803,1,1,0
2826,71,-0.602256,0.020229,-0.020384,-0.098387,1,1,0
2801,71,-0.643568,0.067851,0.034588,0.024044,1,1,0
2803,71,-0.545036,0.016454,0.046868,-0.081621,1,1,0
2827,71,-0.546793,-0.009616,-0.032149,-0.078955,1,1,0
2810,71,-0.553630,0.063717,-0.004056,-0.128069,1,1,0
2800,71,-0.580106,0.025154,0.037739,-0.042729,1,1,0
2812,71,-0.554802,0.074657,0.129047,-0.127490,1,1,0
2817,71,-0.585086,0.014865,-0.016398,-0.120406,1,1,0
2816,71,-0.534767,0.062259,0.024481,-0.108322,1,1,0
2829,71,-0.567948,-0.035829,0.025194,-0.179376,1,1,0
2811,71,-0.625762,0.034976,0.082748,-0.124790,1,1,0
2834,71,-0.593761,0.036788,-0.073723,-0.097972,1,1,0
2802,71,-0.565797,-0.039490,0.031717,-0.076953,1,1,0
2831,71,-0.559438,-0.025731,0.009646,-0.122958,1,1,0
2823,71,-0.532524,-0.017003,-0.020783,-0.140601,1,1,0
2824,71,-0.574629,0.014083,-0.071986,-0.090527,1,1,0
2836,71,-0.513935,-0.035330,-0.076985,-0.108835,1,1,0
2825,71,-0.531318,-0.021825,-0.104130,-0.189414,1,1,0
2806,71,-0.585225,0.035691,0.042596,-0.114603,1,1,0
2819,71,-0.537176,-0.012078,0.019882,-0.100639,1,1,0
2821,71,-0.538061,-0.008371,-0.003208,-0.198138,1,1,0
2805,71,-0.618706,-0.016378,0.041006,-0.118464,1,1,0
2804,71,-0.648450,0.024553,0.007763,-0.081969,1,1,0
2832,71,-0.558029,-0.063635,-0.110431,-0.149286,1,1,0
2822,71,-0.621001,0.038837,-0.025278,-0.211466,1,1,0
2830,71,-0.582730,-0.056429,-0.060339,-0.090311,1,1,0
2815,71,-0.539033,0.015523,0.005305,0.009294,1,1,0
2818,71,-0.514353,0.014625,0.007719,-0.045260,1,1,0
2814,71,-0.610121,0.152927,0.092210,-0.135563,1,0,0
2820,71,-0.600132,0.040535,-0.041757,-0.195828,1,1,0
2828,71,-0.524330,0.182500,-0.052568,-0.230107,0,1,0
2809,71,-0.600712,0.061673,0.114142,-0.107732,1,1,0
2876,72,-0.629503,0.105804,-0.052589,-0.252989,1,1,0
2855,72,-0.549217,-0.005616,0.027270,-0.116588,1,1,0
2850,72,-0.620156,-0.019138,0.082751,-0.047549,1,1,0
2854,72,-0.539652,0.080612,0.026679,-0.043007,1,1,0
2861,72,-0.572757,0.034847,0.064562,-0.168874,1,1,0
2840,72,-0.561497,0.011111,0.074298,-0.155412,1,1,0
2877,72,-0.493741,0.026522,0.038171,-0.107588,1,1,0
2844,72,-0.562368,-0.034239,0.023164,-0.082637,1,1,0
2878,72,-0.610464,0.003751,-0.011283,-0.175335,1,1,0
2874,72,-0.531597,-0.009017,-0.005451,-0.129829,1,1,0
2870,72,-0.528240,-0.088731,-0.105843,-0.068090,1,1,0
2866,72,-0.624098,0.018107,-0.136713,-0.111717,1,1,0
2863,72,-0.597994,0.051070,-0.027678,-0.231057,1,1,0
2853,72,-0.561662,0.095622,-0.008898,-0.158342,1,1,0
2864,72,-0.515374,-0.044664,-0.047155,-0.192261,1,1,0
2869,72,-0.471559,0.015707,-0.102025,-0.186191,1,1,0
2842,72,-0.626040,-0.020239,0.088540,-0.073231,1,1,0
2867,72,-0.554261,-0.043133,-0.032114,-0.105966,1,1,0
2872,72,-0.573383,0.007550,-0.084804,-0.167405,1,1,0
2843,72,-0.561053,0.035202,0.003168,-0.116981,1,1,0
2845,72,-0.619183,-0.096417,0.065029,-0.178610,1,1,0
2852,72,-0.548949,-0.023438,0.054235,-0.051859,1,1,0
2848,72,-0.458570,0.105781,0.054034,0.038148,1,1,0
2860,72,-0.576149,-0.033878,-0.106930,-0.162821,1,1,0
2875,72,-0.560762,-0.104892,-0.080895,-0.144409,1,1,0
2851,72,-0.597884,-0.048758,0.020245,-0.114030,1,1,0
2879,72,-0.583314,-0.008699,-0.114594,-0.170987,1,1,0
2847,72,-0.721527,0.049709,-0.059638,-0.058965,1,0,0
2858,72,-0.522794,-0.019032,0.041366,-0.156611,1,1,0
2856,72,-0.503846,-0.015289,0.026322,-0.251725,1,1,0
2841,72,-0.585016,0.044435,0.049905,-0.076302,1,1,0
2868,72,-0.599276,0.053712,-0.078600,-0.123201,1,1,0
2871,72,-0.554103,-0.068834,-0.011313,-0.139616,1,1,0
2849,72,-0.557411,-0.080097,-0.032577,-0.116443,1,1,0
2862,72,-0.562779,0.065511,-0.111205,-0.125706,1,1,0
2873,72,-0.526338,-0.043862,-0.078209,-0.081247,1,1,0
2846,72,-0.703859,0.077921,0.099719,-0.067094,1,0,0
2865,72,-0.555184,-0.049611,-0.110159,-0.135664,1,1,0
2857,72,-0.603476,-0.069308,0.139538,-0.013547,1,1,0
2859,72,-0.626985,0.021861,0.033738,-0.086940,1,1,0
2919,73,-0.515983,-0.028426,0.027358,-0.167266,1,1,0
2880,73,-0.540398,-0.043815,-0.039992,-0.141002,1,1,0
2912,73,-0.532787,0.056015,-0.049876,-0.228403,1,1,0
2885,73,-0.543788,-0.000782,0.071575,-0.052623,1,1,0
2887,73,-0.542677,-0.014884,0.063855,-0.135371,1,1,0
2900,73,-0.459901,0.002147,-0.156562,-0.106685,1,1,0
2914,73,-0.586188,0.011321,-0.108220,-0.117056,1,1,0
2886,73,-0.588360,0.046348,-0.004181,-0.124332,1,1,0
2903,73,-0.544669,-0.061831,0.004860,-0.209603,1,1,0
2910,73,-0.656691,0.038789,0.026531,-0.158787,1,1,0
2881,73,-0.578635,0.052570,0.031040,-0.168942,1,1,0
2905,73,-0.545131,0.001524,-0.077795,-0.113654,1,1,0
2895,73,-0.523272,-0.096811,0.013535,-0.066014,1,1,0
2916,73,-0.577991,0.025592,-0.119980,-0.190804,1,1,0
2884,73,-0.568472,-0.048522,0.014198,0.000321,1,1,0
2917,73,-0.531540,-0.099904,-0.026764,-0.122920,1,1,0
2913,73,-0.627235,0.031501,-0.129515,-0.144053,1,1,0
2894,73,-0.488200,0.018557,0.071301,-0.175123,1,1,0
2911,73,-0.594234,-0.078564,-0.107114,-0.181855,1,1,0
2883,73,-0.576920,0.010497,0.098809,-0.083629,1,1,0
2907,73,-0.581557,-0.000717,-0.046133,-0.115093,1,1,0
2888,73,-0.638961,0.049980,0.052122,-0.138850,1,1,0
2909,73,-0.622062,0.044701,0.014996,-0.083342,1,1,0
2904,73,-0.516944,-0.051273,-0.053226,-0.165193,1,1,0
2889,73,-0.474080,-0.000629,0.097052,-0.120656,1,1,0
2893,73,-0.618165,0.042545,0.046487,-0.166993,1,1,0
2897,73,-0.535100,-0.023443,0.123367,-0.097405,1,1,0
2918,73,-0.528562,-0.007812,-0.068479,-0.099937,1,1,0
2906,73,-0.546646,0.009266,-0.143012,-0.193343,1,1,0
2890,73,-0.607219,-0.035919,0.138871,-0.125164,1,1,0
2915,73,-0.511397,-0.014858,-0.072068,-0.152005,1,1,0
2882,73,-0.586056,0.050038,0.102375,-0.080955,1,1,0
2898,73,-0.536000,-0.076603,0.079988,-0.121308,1,1,0
2901,73,-0.592101,0.015745,-0.102956,-0.120119,1,1,0
2891,73,-0.611505,-0.009669,0.023140,-0.062101,1,1,0
2896,73,-0.567374,-0.002853,0.102065,-0.072384,1,1,0
2902,73,-0.609974,-0.025356,-0.047758,-0.220221,1,1,0
2908,73,-0.525971,-0.099158,-0.060115,-0.169302,1,1,0
2899,73,-0.544365,0.145937,-0.033029,-0.165731,1,0,0
2892,73,-0.645747,0.050189,0.098568,-0.128371,1,1,0
2927,74,-0.622138,0.019243,0.188697,-0.093188,1,1,0
2946,74,-0.568806,-0.130763,-0.019188,-0.174494,0,1,0
2940,74,-0.599726,0.019475,-0.083301,-0.038342,1,1,0
2944,74,-0.612785,-0.027923,-0.073605,-0.138788,1,1,0
2923,74,-0.678402,0.053791,0.056902,-0.172395,1,1,0
2949,74,-0.545987,0.026463,-0.074114,-0.079028,1,1,0
2930,74,-0.491802,0.141162,0.143525,-0.097590,1,0,0
2948,74,-0.602943,0.050488,0.054417,-0.052363,1,1,0
2952,74,-0.548050,-0.041290,-0.099594,-0.130149,1,1,0
2945,74,-0.555451,-0.067370,-0.031178,-0.203142,1,1,0
2922,74,-0.640833,0.004594,0.055552,-0.035702,1,1,0
2931,74,-0.551830,0.061353,0.000830,-0.095254,1,1,0
2933,74,-0.602109,-0.010978,-0.004791,-0.144012,1,1,0
2950,74,-0.533273,0.015176,-0.144545,-0.155197,1,1,0
2934,74,-0.618024,0.011474,0.068932,-0.158700,1,1,0
2928,74,-0.568576,0.009270,0.093071,-0.254150,1,1,0
2953,74,-0.618348,0.039766,0.060920,-0.041331,1,1,0
2943,74,-0.566496,0.063425,0.051936,-0.131971,1,1,0
2942,74,-0.547038,-0.054732,-0.037953,-0.097188,1,1,0
2936,74,-0.510649,0.071461,0.036502,-0.044769,1,1,0
2938,74,-0.543478,0.076442,-0.038824,-0.094292,1,1,0
2921,74,-0.573192,0.034147,0.020811,-0.165622,1,1,0
2958,74,-0.599792,-0.001701,-0.083775,-0.173196,1,1,0
2920,74,-0.589259,0.013637,0.102831,-0.149033,1,1,0
2954,74,-0.566492,-0.054243,0.058827,-0.244033,1,1,0
2951,74,-0.534517,0.007633,-0.070121,-0.109023,1,1,0
2957,74,-0.556824,0.057705,-0.038691,-0.173485,1,1,0
2956,74,-0.601907,-0.059397,-0.051574,-0.187805,1,1,0
2925,74,-0.597369,0.076442,0.113433,-0.067499,1,1,0
2947,74,-0.626693,-0.045179,-0.022660,-0.204804,1,1,0
2939,74,-0.603374,-0.042102,0.068982,-0.150889,1,1,0
2929,74,-0.521142,-0.040333,-0.030270,-0.033541,1,1,0
2935,74,-0.504361,-0.002943,0.009946,-0.081718,1,1,0
2932,74,-0.581162,0.110601,0.003910,-0.109091,1,1,0
2959,74,-0.457169,-0.074390,-0.080071,-0.105913,0,1,0
2924,74,-0.634477,0.048541,0.027998,-0.089961,1,1,0
2941,74,-0.558159,-0.005046,-0.053677,-0.105727,1,1,0
2926,74,-0.552788,0.023125,0.050414,-0.157000,1,1,0
2955,74,-0.551181,-0.059091,-0.014084,-0.108450,1,1,0
2937,74,-0.499405,-0.004189,0.085100,-0.135932,1,1,0
2973,75,-0.517643,0.052540,0.072244,-0.099811,1,1,0
2980,75,-0.548464,-0.039051,0.039102,-0.212830,1,1,0
2975,75,-0.572487,0.088206,0.072236,-0.166692,1,1,0
2974,75,-0.535477,0.073670,-0.031879,-0.053770,1,1,0
2978,75,-0.546442,0.016027,0.030382,-0.059262,1,1,0
2962,75,-0.599208,0.007491,0.016465,-0.097579,1,1,0
2983,75,-0.545615,0.041211,-0.059840,-0.100539,1,1,0
2996,75,-0.534578,0.005654,-0.062252,-0.166342,1,1,0
2989,75,-0.464927,-0.049022,-0.035978,-0.186326,1,1,0
2970,75,-0.657200,0.003132,0.141193,-0.039653,1,1,0
2972,75,-0.609295,0.005274,0.008906,-0.057427,1,1,0
2988,75,-0.483033,-0.031227,-0.063729,-0.246901,1,1,0
2995,75,-0.491638,-0.025803,-0.076193,-0.223053,1,1,0
2969,75,-0.606446,-0.091235,0.000129,-0.076969,1,1,0
2998,75,-0.503463,0.110300,-0.032698,-0.257155,1,1,0
2976,75,-0.658764,0.056529,0.033254,-0.156882,1,1,0
2968,75,-0.470926,0.031633,0.039382,-0.027094,1,1,0
2999,75,-0.511928,-0.077509,0.022295,-0.105704,1,1,0
2985,75,-0.517655,0.009204,-0.044737,-0.189669,1,1,0
2993,75,-0.532416,0.048168,0.016564,-0.087912,1,1,0
2982,75,-0.519759,-0.002234,-0.030325,-0.033477,1,1,0
2977,75,-0.557540,0.038050,0.019346,-0.139913,1,1,0
2967,75,-0.626502,0.059586,0.072070,-0.181438,1,1,0
2979,75,-0.656029,0.058940,0.127414,-0.129781,1,1,0
2965,75,-0.485779,0.032134,0.113732,-0.129718,1,1,0
2991,75,-0.561280,0.042527,-0.040382,-0.201576,1,1,0
2960,75,-0.546087,0.063117,0.029302,-0.088492,1,1,0
2984,75,-0.591930,-0.039130,-0.078646,-0.128329,1,1,0
2966,75,-0.629533,-0.047378,0.119886,-0.264134,1,1,0
2961,75,-0.567785,-0.012555,0.086307,-0.059883,1,1,0
2997,75,-0.600560,-0.047365,-0.122546,-0.062298,1,1,0
2964,75,-0.557827,-0.050358,0.089716,-0.124870,1,1,0
2987,75,-0.461583,-0.011891,-0.085706,-0.107460,1,1,0
2963,75,-0.534771,0.047209,0.077718,-0.109164,1,1,0
2971,75,-0.595049,0.061281,0.086834,-0.171350,1,1,0
2986,75,-0.490822,-0.014457,0.015693,-0.179306,1,1,0
2981,75,-0.558585,-0.065646,-0.021583,-0.210687,1,1,0
2992,75,-0.556652,-0.045261,-0.055155,-0.038439,1,1,0
2994,75,-0.556894,0.004768,-0.005609,-0.139653,1,1,0
2990,75,-0.570264,0.023299,-0.098440,-0.135234,1,1,0
3020,76,-0.530907,0.017909,-0.026433,-0.177754,1,1,0
3031,76,-0.479211,-0.116035,-0.108621,-0.141612,0,1,0
3039,76,-0.513208,0.059938,-0.096316,-0.181186,1,1,0
3007,76,-0.580270,-0.026145,0.075103,-0.122826,1,1,0
3026,76,-0.508237,-0.083092,-0.098469,-0.149459,1,1,0
3009,76,-0.583431,0.072524,0.076228,-0.205030,1,1,0
3008,76,-0.632101,0.113643,0.091911,-0.022198,1,1,0
3010,76,-0.556073,0.038304,0.135635,-0.193684,1,1,0
3012,76,-0.597234,0.056866,0.133828,-0.102340,1,1,0
3030,76,-0.479757,-0.054660,-0.014975,-0.134575,1,1,0
3018,76,-0.597347,0.022227,-0.002266,-0.067875,1,1,0
3005,76,-0.501263,-0.018088,0.126018,-0.079829,1,1,0
3034,76,-0.595086,0.001894,-0.138865,-0.122767,1,1,0
3027,76,-0.623353,0.004198,-0.082731,-0.146328,1,1,0
3038,76,-0.541649,-0.086320,-0.030217,-0.183334,1,1,0
3033,76,-0.535646,0.003545,-0.132501,-0.136925,1,1,0
3024,76,-0.549919,0.043084,-0.017757,-0.191826,1,1,0
3032,76,-0.502507,-0.029735,-0.114819,-0.149904,1,1,0
3023,76,-0.588489,0.002387,-0.008058,-0.132937,1,1,0
3035,76,-0.527336,-0.002489,-0.081121,-0.174903,1,1,0
3022,76,-0.477783,0.041372,-0.081659,-0.121057,1,1,0
3015,76,-0.537666,0.013291,0.129913,-0.083536,1,1,0
3003,76,-0.595830,-0.053234,0.103666,-0.167410,1,1,0
3028,76,-0.472514,-0.038761,-0.028984,-0.180118,1,1,0
3025,76,-0.489363,-0.071882,-0.058640,-0.100357,1,1,0
3017,76,-0.550755,0.075131,0.001560,-0.042269,1,1,0
3021,76,-0.536036,-0.106036,-0.053684,-0.108070,1,1,0
3037,76,-0.518558,0.021397,-0.060559,-0.083039,1,1,0
3001,76,-0.603430,0.058258,0.029153,-0.053332,1,1,0
3029,76,-0.553427,0.018136,-0.066910,-0.125474,1,1,0
3002,76,-0.648853,0.041258,0.048965,-0.179093,1,1,0
3036,76,-0.586997,-0.001513,-0.031482,-0.143092,1,1,0
3016,76,-0.567890,0.012660,0.099137,-0.095258,1,1,0
3014,76,-0.645071,-0.052626,0.100184,-0.066562,1,1,0
3013,76,-0.555731,-0.054842,0.022460,-0.165605,1,1,0
3004,76,-0.523553,0.014831,-0.016933,-0.057064,1,1,0
3019,76,-0.599608,0.048287,0.093263,-0.107573,1,1,0
3011,76,-0.639825,0.100861,-0.016443,-0.121885,1,1,0
3000,76,-0.580726,0.074324,0.099034,-0.143768,1,1,0
3006,76,-0.616635,0.005639,0.177612,-0.097928,1,1,0
3072,77,-0.491801,0.144567,-0.042207,-0.115990,1,1,0
3046,77,-0.546752,-0.059696,0.105544,-0.169987,1,1,0
3075,77,-0.496450,0.009924,-0.059111,-0.122505,1,1,0
3070,77,-0.512035,-0.058900,0.012062,-0.214560,1,1,0
3050,77,-0.608749,0.053025,0.074387,-0.187136,1,1,0
3053,77,-0.555622,-0.001918,0.034027,-0.041336,1,1,0
3066,77,-0.564658,-0.038906,-0.053700,-0.154062,1,1,0
3062,77,-0.571145,-0.003671,-0.035618,-0.223157,1,1,0
3041,77,-0.559900,0.019622,-0.007912,-0.140057,1,1,0
3049,77,-0.582265,0.072181,0.037417,-0.060428,1,1,0
3071,77,-0.450810,0.011554,-0.004553,-0.163369,1,1,0
3045,77,-0.541648,0.069261,0.045693,-0.102706,1,1,0
3043,77,-0.588301,-0.046581,0.060032,-0.082506,1,1,0
3063,77,-0.499441,0.032798,-0.019320,-0.155109,1,1,0
3052,77,-0.588800,-0.053924,-0.021555,-0.093055,1,1,0
3051,77,-0.458895,0.047412,0.059870,-0.045032,1,1,0
3060,77,-0.582069,-0.044610,-0.067854,-0.154775,1,1,0
3059,77,-0.582099,0.034050,0.056158,-0.038286,1,1,0
3058,77,-0.590133,-0.030312,0.037956,-0.059703,1,1,0
3055,77,-0.600416,0.116170,0.045910,-0.027206,1,1,0
3044,77,-0.657021,0.000306,-0.001891,-0.040513,1,1,0
3067,77,-0.605377,0.042898,-0.066575,-0.109637,1,1,0
3040,77,-0.622629,0.066465,0.039155,-0.128735,1,1,0
3057,77,-0.529964,0.041749,0.070687,-0.108367,1,1,0
3068,77,-0.574992,-0.012881,-0.022701,-0.133130,1,1,0
3048,77,-0.561430,0.044073,0.046396,-0.166280,1,1,0
3065,77,-0.485646,0.025547,-0.059263,-0.168990,1,1,0
3074,77,-0.524576,0.076828,-0.090644,-0.213480,1,1,0
3056,77,-0.591050,0.048870,0.093476,-0.166240,1,1,0
3042,77,-0.547986,0.060276,0.052515,-0.189818,1,1,0
3061,77,-0.659610,0.107656,-0.148188,-0.060560,1,1,0
3054,77,-0.584083,0.035696,0.055607,-0.044436,1,1,0
3078,77,-0.544187,0.035475,-0.018913,-0.098380,1,1,0
3073,77,-0.537620,-0.029722,-0.055418,-0.056592,1,1,0
3079,77,-0.565806,-0.025063,-0.078804,-0.140873,1,1,0
3077,77,-0.540914,-0.065836,-0.014453,-0.143500,1,1,0
3047,77,-0.603513,0.034938,0.145925,-0.071731,1,1,0
3076,77,-0.566434,0.013728,0.009647,-0.103521,1,1,0
3069,77,-0.516546,0.061483,-0.047921,-0.193969,1,1,0
3064,77,-0.613542,0.104425,-0.019574,-0.142496,1,1,0
3095,78,-0.618064,0.081145,0.127143,-0.058727,1,1,0
3116,78,-0.597910,0.034794,-0.101360,-0.161184,1,1,0
3104,78,-0.555052,0.045082,0.002183,-0.114483,1,1,0
3080,78,-0.600283,0.053959,-0.047962,-0.119001,1,1,0
3106,78,-0.425371,-0.014801,0.005026,-0.190278,0,1,0
3108,78,-0.493014,0.057814,-0.052684,-0.180372,1,1,0
3111,78,-0.606027,0.011569,-0.005903,-0.079519,1,1,0
3090,78,-0.627948,-0.008246,0.120009,-0.085588,1,1,0
3107,78,-0.547117,-0.022604,-0.004680,-0.020274,1,1,0
3118,78,-0.486374,0.067776,-0.014698,-0.108896,1,1,0
3096,78,-0.586237,-0.063972,0.063154,-0.033861,1,1,0
3094,78,-0.508678,-0.025093,0.020909,-0.073978,1,1,0
3110,78,-0.570853,-0.075116,-0.073621,-0.092050,1,1,0
3119,78,-0.571101,0.045341,-0.031555,-0.185258,1,1,0
3085,78,-0.549726,0.094460,0.073843,-0.129268,1,1,0
3102,78,-0.574133,-0.035114,-0.083512,-0.071829,1,1,0
3084,78,-0.618203,0.089293,0.055092,-0.084988,1,1,0
3092,78,-0.518791,0.015355,0.069154,-0.086094,1,1,0
3082,78,-0.571188,0.071154,0.043277,-0.144025,1,1,0
3114,78,-0.557787,-0.052711,-0.047502,-0.130418,1,1,0
3083,78,-0.611883,-0.002638,0.062192,-0.090202,1,1,0
3113,78,-0.579906,-0.051556,-0.115452,-0.117136,1,1,0
3089,78,-0.521381,-0.001754,0.005423,-0.049387,1,1,0
3109,78,-0.570754,-0.077540,-0.051757,-0.083338,1,1,0
3093,78,-0.658483,0.107044,0.065554,-0.154407,1,0,0
3117,78,-0.534820,-0.016050,-0.026955,-0.131832,1,1,0
3105,78,-0.657028,0.123814,-0.102579,-0.169795,1,1,0
3086,78,-0.591096,0.028018,0.125925,-0.079072,1,1,0
3115,78,-0.481292,0.025589,0.053144,-0.134164,1,1,0
3097,78,-0.597776,-0.018821,0.051993,-0.151179,1,1,0
3099,78,-0.509130,0.069236,0.042487,-0.109129,1,1,0
3091,78,-0.600300,0.040404,0.015200,-0.126751,1,1,0
3112,78,-0.460258,-0.041698,0.018491,-0.176792,1,1,0
3100,78,-0.528698,-0.006834,-0.037182,-0.112857,1,1,0
3087,78,-0.620717,0.021500,-0.009856,-0.031365,1,1,0
3081,78,-0.533125,0.095359,0.135799,-0.073090,1,1,0
3088,78,-0.585118,-0.072240,0.127809,-0.061337,1,1,0
3098,78,-0.506865,0.034124,0.046871,-0.099266,1,1,0
3101,78,-0.520536,-0.025879,-0.120634,-0.176141,1,1,0
3103,78,-0.543227,0.009059,-0.041216,-0.069004,1,1,0
3156,79,-0.553547,-0.092757,-0.116567,-0.088123,1,1,0
3123,79,-0.568191,0.072031,0.059259,-0.070046,1,1,0
3141,79,-0.498910,-0.048843,-0.095866,-0.132134,1,1,0
3137,79,-0.579718,0.105829,0.095935,-0.086247,1,1,0
3149,79,-0.634634,-0.012718,-0.073207,-0.092385,1,1,0
3145,79,-0.590449,0.085572,-0.061136,-0.127799,1,1,0
3120,79,-0.559991,-0.016631,0.008652,-0.132546,1,1,0
3130,79,-0.627833,0.027550,0.001066,-0.034037,1,1,0
3159,79,-0.555497,-0.034575,-0.021190,-0.038217,1,1,0
3148,79,-0.545539,-0.026707,0.027641,-0.153735,1,1,0
3151,79,-0.509428,0.138657,-0.042311,-0.106047,1,1,0
3147,79,-0.513588,0.018847,-0.088201,-0.163250,1,1,0
3157,79,-0.513173,0.009349,-0.030601,-0.152649,1,1,0
3154,79,-0.598515,-0.045316,-0.012192,-0.128901,1,1,0
3136,79,-0.575572,-0.034602,0.019247,-0.166688,1,1,0
3155,79,-0.523105,0.012688,-0.037384,-0.194401,1,1,0
3144,79,-0.570564,-0.036956,-0.135216,-0.010373,1,1,0
3146,79,-0.570257,0.024035,-0.030612,-0.084297,1,1,0
3140,79,-0.544592,0.016810,-0.041792,-0.080929,1,1,0
3153,79,-0.561204,0.086898,0.041750,-0.127735,1,1,0
3135,79,-0.577659,-0.026132,-0.040162,-0.162729,1,1,0
3124,79,-0.573984,-0.068642,0.067221,-0.134065,1,1,0
3152,79,-0.586341,-0.052371,-0.048975,-0.139131,1,1,0
3142,79,-0.492745,-0.008961,-0.069646,-0.091495,1,1,0
3129,79,-0.648248,0.032749,0.014503,-0.123733,1,1,0
3150,79,-0.557876,0.021664,-0.085631,-0.179211,1,1,0
3158,79,-0.594096,-0.051458,-0.045180,-0.202217,1,1,0
3138,79,-0.470502,-0.010511,0.053795,-0.033775,1,1,0
3122,79,-0.566050,-0.038074,0.039651,-0.126805,1,1,0
3143,79,-0.467475,0.074055,0.006028,-0.144759,1,1,0
3133,79,-0.560141,0.075489,0.076012,-0.039665,1,1,0
3121,79,-0.597799,0.113638,0.102494,-0.074571,1,1,0
3126,79,-0.543669,0.004264,0.017555,-0.037873,1,1,0
3131,79,-0.512957,0.019600,0.046416,-0.071898,1,1,0
3128,79,-0.644796,0.081659,0.007868,-0.130826,1,1,0
3125,79,-0.572517,0.004091,0.071921,-0.158349,1,1,0
3132,79,-0.550583,0.051661,0.037958,-0.134780,1,1,0
3139,79,-0.561210,0.176466,0.014057,-0.038648,1,0,0
3134,79,-0.576900,0.023983,0.062397,-0.191268,1,1,0
3127,79,-0.608551,0.040532,0.015108,-0.085819,1,1,0
3193,80,-0.534980,-0.017701,0.117844,-0.042618,1,1,0
3197,80,-0.537174,0.022866,0.145658,0.001065,1,1,0
3178,80,-0.569350,0.043308,0.063315,-0.051156,1,1,0
3166,80,-0.599133,0.016121,0.074442,-0.088890,1,1,0
3169,80,-0.496011,0.067269,0.107405,-0.123371,1,1,0
3179,80,-0.575519,0.069957,0.063326,-0.043766,1,1,0
3168,80,-0.641036,-0.000330,0.065344,-0.092707,1,1,0
3165,80,-0.516164,0.063313,0.061108,-0.110033,1,1,0
3188,80,-0.556019,-0.004736,-0.010442,0.133715,1,1,0
3184,80,-0.607093,-0.095653,0.047268,0.050088,1,1,0
3192,80,-0.546412,0.019721,0.050932,0.069496,1,1,0
3187,80,-0.520190,-0.024739,0.148414,0.133262,1,1,0
3195,80,-0.516766,-0.012988,0.046263,0.068685,1,1,0
3176,80,-0.568696,-0.004057,0.053915,-0.163692,1,1,0
3162,80,-0.608040,0.088181,0.112774,-0.086402,1,1,0
3161,80,-0.620106,0.022189,0.042180,-0.100120,1,1,0
3196,80,-0.560770,0.010548,0.018969,0.109557,1,1,0
3177,80,-0.536081,-0.017845,0.048543,0.003582,1,1,0
3191,80,-0.598828,0.016138,-0.019924,-0.072280,1,1,0
3167,80,-0.457576,0.105221,0.013816,-0.099482,1,1,0
3198,80,-0.515129,0.046859,0.101465,0.049972,1,1,0
3181,80,-0.556541,-0.003847,0.081595,0.093413,1,1,0
3174,80,-0.524248,0.073398,0.066304,-0.087745,1,1,0
3183,80,-0.555680,-0.089399,0.037470,0.112632,1,1,0
3186,80,-0.517688,0.139285,0.113142,-0.000545,1,1,0
3180,80,-0.555496,-0.045974,0.075793,0.001724,1,1,0
3171,80,-0.620894,-0.068926,0.053238,-0.096269,1,1,0
3185,80,-0.565655,0.020439,0.007574,0.069653,1,1,0
3164,80,-0.547300,0.021121,0.039256,-0.087981,1,1,0
3190,80,-0.561633,0.053786,0.093542,0.038959,1,1,0
3163,80,-0.580957,-0.063192,0.100649,-0.125772,1,1,0
3194,80,-0.485969,0.002160,-0.004403,0.018893,1,1,0
3172,80,-0.600431,0.016809,0.200139,-0.178936,1,1,0
3173,80,-0.577955,0.118393,0.049124,-0.112919,1,1,0
3170,80,-0.509254,0.077608,0.086974,-0.063522,1,1,0
3160,80,-0.660705,0.106307,0.077124,-0.058450,1,0,0
3189,80,-0.598216,0.054985,-0.030030,0.055947,1,1,0
3199,80,-0.559453,0.026824,0.045708,-0.003668,1,1,0
3182,80,-0.543796,0.039444,0.043563,-0.070224,1,1,0
3175,80,-0.599621,0.032461,0.094265,-0.122093,1,1,0
3211,81,-0.671710,-0.027407,0.116970,-0.021319,1,1,0
3226,81,-0.534287,0.049025,0.094313,0.070285,1,1,0
3224,81,-0.503341,0.096738,0.059803,0.068184,1,1,0
3232,81,-0.519771,-0.059760,-0.029654,0.100177,1,1,0
3234,81,-0.505455,0.041872,0.036805,0.062836,1,1,0
3205,81,-0.543053,0.011209,0.084149,-0.108289,1,1,0
3213,81,-0.508423,0.042101,0.067318,-0.114439,1,1,0
3219,81,-0.585434,0.034386,0.108260,-0.077559,1,1,0
3204,81,-0.535159,0.039524,-0.010240,-0.171030,1,1,0
3209,81,-0.546299,0.058379,0.104395,-0.094896,1,1,0
3210,81,-0.618944,-0.014088,0.146990,-0.134818,1,1,0
3238,81,-0.537459,-0.025597,0.032205,-0.008480,1,1,0
3217,81,-0.519817,-0.026897,0.004256,-0.086771,1,1,0
3229,81,-0.496651,-0.000584,0.031069,0.113569,1,1,0
3216,81,-0.567201,-0.069446,-0.004496,-0.109793,1,1,0
3203,81,-0.574919,0.078959,0.109131,-0.097585,1,1,0
3212,81,-0.591477,0.073566,0.026362,-0.140044,1,1,0
3200,81,-0.559803,-0.029355,0.038223,-0.086157,1,1,0
3231,81,-0.450734,0.006061,0.036028,0.019386,1,1,0
3201,81,-0.577149,0.005287,0.087234,-0.128694,1,1,0
3202,81,-0.534851,-0.031319,0.041468,-0.170758,1,1,0
3214,81,-0.560914,0.011296,0.136182,-0.118379,1,1,0
3236,81,-0.567923,-0.048683,0.083801,0.055426,1,1,0
3233,81,-0.520011,0.061646,0.118596,0.089761,1,1,0
3207,81,-0.486722,0.079762,0.087719,-0.124849,1,1,0
3235,81,-0.598616,0.005810,0.084836,0.051298,1,1,0
3230,81,-0.600907,0.079912,0.146157,0.107233,1,1,0
3225,81,-0.552315,-0.057187,0.119658,0.039651,1,1,0
3208,81,-0.672351,-0.022357,0.022344,-0.090708,1,1,0
3220,81,-0.586970,-0.030711,0.063845,0.016773,1,1,0
3223,81,-0.512495,-0.027200,0.101446,0.090705,1,1,0
3239,81,-0.561219,-0.010693,0.201842,0.050666,1,1,0
3215,81,-0.626500,0.034891,-0.037919,-0.057587,1,1,0
3222,81,-0.576360,0.006621,0.080297,0.077980,1,1,0
3228,81,-0.530758,-0.025538,0.057551,0.105921,1,1,0
3218,81,-0.494407,0.041168,0.081880,-0.133224,1,1,0
3237,81,-0.553568,-0.021577,0.100601,0.081935,1,1,0
3227,81,-0.660308,-0.021230,0.203067,-0.037386,1,1,0
3206,81,-0.599962,-0.112084,-0.036042,-0.133777,1,1,0
3221,81,-0.644208,0.007045,-0.036570,-0.015889,1,1,0
3243,82,-0.618525,-0.047018,-0.050509,-0.067003,1,1,0
3275,82,-0.512792,0.002470,-0.013510,-0.083193,1,1,0
3240,82,-0.517425,-0.023400,0.036104,-0.105577,1,1,0
3278,82,-0.548881,-0.040052,-0.099943,-0.043250,1,1,0
3241,82,-0.508581,-0.002359,0.145534,-0.137261,1,1,0
3251,82,-0.637298,0.060319,0.032819,-0.064683,1,1,0
3257,82,-0.540069,-0.004836,0.091124,-0.112537,1,1,0
3253,82,-0.538189,0.128512,0.020530,-0.106991,1,1,0
3244,82,-0.673116,0.038002,0.062204,-0.056987,1,1,0
3276,82,-0.498652,-0.004811,-0.204681,-0.117867,1,1,0
3262,82,-0.633287,0.028184,-0.031878,-0.010294,1,1,0
3252,82,-0.634117,0.027657,0.021474,-0.108426,1,1,0
3256,82,-0.560444,-0.074736,0.008829,-0.151055,1,1,0
3254,82,-0.530820,0.008926,0.017031,-0.071180,1,1,0
3271,82,-0.556166,0.005302,-0.064438,-0.032856,1,1,0
3266,82,-0.529062,0.038171,0.022681,-0.108133,1,1,0
3269,82,-0.659998,-0.004510,-0.043206,-0.047338,1,1,0
3267,82,-0.531043,-0.011567,-0.125706,-0.046981,1,1,0
3259,82,-0.499674,0.053328,0.131081,-0.118347,1,1,0
3264,82,-0.514632,0.066013,-0.073795,0.029915,1,1,0
3273,82,-0.481574,0.007840,-0.018039,-0.043238,1,1,0
3268,82,-0.482202,0.071018,-0.046859,-0.126856,1,1,0
3245,82,-0.467210,0.045862,0.028556,-0.044583,1,1,0
3250,82,-0.609750,-0.013153,0.117535,-0.174165,1,1,0
3272,82,-0.586266,-0.022096,-0.057685,-0.069375,1,1,0
3274,82,-0.526267,0.059490,-0.064121,-0.036407,1,1,0
3246,82,-0.526455,0.076121,0.063083,-0.177702,1,1,0
3247,82,-0.585385,0.012126,0.070400,-0.124172,1,1,0
3261,82,-0.526802,-0.039361,-0.199022,-0.079822,1,1,0
3255,82,-0.427156,0.028543,0.119829,-0.097975,1,1,0
3248,82,-0.550899,0.026568,0.004967,-0.142949,1,1,0
3265,82,-0.648691,0.044169,-0.065523,-0.101299,1,1,0
3277,82,-0.522658,-0.089802,-0.065665,-0.019404,1,1,0
3242,82,-0.639384,-0.002665,0.010887,-0.152551,1,1,0
3249,82,-0.550897,-0.105198,0.082112,-0.104417,1,1,0
3270,82,-0.456067,-0.010388,-0.134754,-0.031700,1,1,0
3263,82,-0.609295,-0.020469,-0.143109,-0.118397,1,1,0
3260,82,-0.546278,0.023627,-0.094975,-0.069440,1,1,0
3258,82,-0.556036,0.072183,-0.040726,-0.165746,1,1,0
3279,82,-0.541389,-0.091257,-0.011971,-0.094716,1,1,0
3291,83,-0.588923,0.012324,0.071457,-0.104280,1,1,0
3305,83,-0.568986,-0.051451,-0.009477,0.036626,1,1,0
3299,83,-0.549104,0.031747,0.044966,-0.156151,1,1,0
3280,83,-0.546195,-0.056641,-0.012920,-0.046731,1,1,0
3288,83,-0.563060,0.021521,0.170881,-0.056240,1,1,0
3308,83,-0.568781,0.132650,-0.099208,0.006383,1,1,0
3316,83,-0.460190,0.028177,-0.159049,-0.054444,1,1,0
3296,83,-0.544057,-0.017088,0.091882,-0.149060,1,1,0
3312,83,-0.540210,0.004030,-0.065315,-0.096503,1,1,0
3304,83,-0.457499,0.000165,-0.098098,-0.154278,1,1,0
3297,83,-0.566738,-0.028976,0.044625,-0.061208,1,1,0
3284,83,-0.612995,0.044650,0.064525,-0.141073,1,1,0
3313,83,-0.580591,0.022726,-0.111261,-0.038814,1,1,0
3319,83,-0.560688,0.013642,-0.090948,-0.034694,1,1,0
3295,83,-0.580782,-0.049791,0.006580,-0.108324,1,1,0
3298,83,-0.552301,0.090509,0.014688,-0.099905,1,1,0
3309,83,-0.516692,-0.044677,-0.120561,-0.037251,1,1,0
3315,83,-0.560359,0.031095,-0.098551,-0.065654,1,1,0
3285,83,-0.598730,0.041982,0.229568,-0.029460,1,1,0
3306,83,-0.519307,-0.049398,-0.054273,-0.116366,1,1,0
3318,83,-0.572183,0.037263,-0.050865,-0.093281,1,1,0
3301,83,-0.566801,0.069741,-0.148670,0.023472,1,1,0
3302,83,-0.534217,0.045523,-0.065941,-0.036083,1,1,0
3300,83,-0.552369,0.082617,-0.147151,-0.050469,1,1,0
3287,83,-0.542166,-0.003280,0.024542,-0.179117,1,1,0
3289,83,-0.564135,0.066891,0.032723,-0.086576,1,1,0
3282,83,-0.559874,0.070829,0.079197,-0.123591,1,1,0
3283,83,-0.591935,-0.016296,0.011247,-0.179034,1,1,0
3290,83,-0.527842,0.116778,-0.035943,-0.073267,1,1,0
3281,83,-0.647235,0.002362,0.086162,-0.074329,1,1,0
3310,83,-0.481945,0.041842,-0.012561,-0.115375,1,1,0
3317,83,-0.592639,-0.021866,-0.102603,-0.066414,1,1,0
3307,83,-0.589911,-0.041168,-0.076661,-0.046880,1,1,0
3314,83,-0.579614,0.048004,0.006253,0.034200,1,1,0
3293,83,-0.497462,0.017990,0.065928,-0.145136,1,1,0
3303,83,-0.483093,0.010716,-0.060060,-0.129089,1,1,0
3294,83,-0.522480,0.003396,0.137489,-0.079656,1,1,0
3292,83,-0.543162,0.010337,0.006046,-0.098621,1,1,0
3311,83,-0.383280,0.113358,-0.037028,-0.095318,0,1,0
3286,83,-0.627112,0.075528,0.021299,-0.125348,1,1,0
3345,84,-0.533085,0.093012,-0.016736,-0.089476,1,1,0
3346,84,-0.469746,-0.053860,-0.133421,-0.099691,1,1,0
3357,84,-0.647421,0.104048,-0.008000,-0.059321,1,1,0
3335,84,-0.562238,0.043921,0.107823,-0.129375,1,1,0
3325,84,-0.476346,0.001910,-0.042693,-0.058646,1,1,0
3340,84,-0.535750,-0.002633,-0.062475,-0.080325,1,1,0
3326,84,-0.637466,0.029967,-0.010999,-0.184147,1,1,0
3347,84,-0.499607,0.046070,-0.132150,-0.007412,1,1,0
3330,84,-0.507267,0.050348,0.036272,-0.162754,1,1,0
3343,84,-0.546964,-0.013696,0.029743,-0.053245,1,1,0
3339,84,-0.577768,-0.007655,-0.024705,-0.065315,1,1,0
3333,84,-0.561653,0.028435,0.022816,-0.071934,1,1,0
3323,84,-0.597779,-0.093442,-0.011723,-0.066711,1,1,0
3351,84,-0.496617,0.015994,-0.048556,0.013152,1,1,0
3336,84,-0.541022,0.009862,0.148776,-0.072268,1,1,0
3324,84,-0.703094,-0.004716,0.152252,-0.071447,1,0,0
3353,84,-0.546422,0.045035,-0.085567,0.035610,1,1,0
3320,84,-0.479355,-0.004328,-0.048838,-0.070550,1,1,0
3337,84,-0.523170,0.054430,0.036114,-0.129890,1,1,0
3338,84,-0.570432,0.017347,-0.004159,-0.094907,1,1,0
3331,84,-0.492421,0.006430,0.091733,-0.097942,1,1,0
3354,84,-0.520654,0.068362,-0.085568,-0.003740,1,1,0
3329,84,-0.555004,0.002314,0.021997,-0.099552,1,1,0
3334,84,-0.614508,0.017456,0.003539,-0.166354,1,1,0
3342,84,-0.534276,-0.002510,-0.095069,-0.099537,1,1,0
3344,84,-0.516057,0.053391,-0.073815,-0.005386,1,1,0
3349,84,-0.512041,0.022493,-0.021020,0.030406,1,1,0
3321,84,-0.568837,0.017248,0.075260,-0.102541,1,1,0
3350,84,-0.545452,-0.037749,-0.145127,-0.030513,1,1,0
3322,84,-0.537667,-0.046721,-0.011455,-0.080210,1,1,0
3358,84,-0.564510,0.014298,-0.027044,-0.001625,1,1,0
3352,84,-0.562880,0.063625,-0.092117,-0.041553,1,1,0
3359,84,-0.564629,-0.092778,-0.081710,-0.102022,1,1,0
3327,84,-0.525118,0.016758,-0.025834,-0.062947,1,1,0
3341,84,-0.570268,-0.011733,-0.131330,-0.043849,1,1,0
3348,84,-0.658742,-0.092576,-0.078926,-0.069429,0,1,0
3355,84,-0.512216,0.109291,0.021417,-0.025343,1,1,0
3356,84,-0.503054,-0.025684,-0.048963,-0.033859,1,1,0
3332,84,-0.516824,0.023566,0.053954,-0.108783,1,1,0
3328,84,-0.595643,0.004387,0.094033,-0.142097,1,1,0
3381,85,-0.479239,0.038634,-0.005805,-0.102442,1,1,0
3370,85,-0.619177,-0.092660,0.047771,-0.121314,1,1,0
3386,85,-0.597997,-0.027074,-0.111367,-0.061409,1,1,0
3394,85,-0.418713,0.088786,-0.165736,-0.061794,0,1,0
3399,85,-0.586457,0.053364,-0.077583,-0.006774,1,1,0
3361,85,-0.605201,0.092471,0.022387,-0.073692,1,1,0
3383,85,-0.458211,-0.084954,-0.161568,-0.049720,0,1,0
3398,85,-0.452814,0.002981,-0.058976,-0.004362,1,1,0
3376,85,-0.545044,0.030337,0.084265,-0.031286,1,1,0
3389,85,-0.624490,0.062210,-0.042677,0.043852,1,1,0
3366,85,-0.466733,0.028060,0.147822,-0.179299,1,1,0
3379,85,-0.571757,0.009598,0.041437,-0.119026,1,1,0
3362,85,-0.625391,0.136214,0.042037,-0.093048,1,0,0
3363,85,-0.613830,-0.008197,0.035945,-0.142768,1,1,0
3377,85,-0.605492,0.054303,-0.033223,-0.095503,1,1,0
3388,85,-0.527287,-0.100300,0.021290,-0.066200,1,1,0
3378,85,-0.506324,0.121216,0.041850,-0.174183,1,1,0
3385,85,-0.536804,0.031981,-0.092066,-0.036378,1,1,0
3365,85,-0.543877,0.001017,0.021385,-0.073540,1,1,0
3382,85,-0.566466,-0.005939,-0.096003,-0.101683,1,1,0
3397,85,-0.576707,0.039971,-0.051591,-0.096971,1,1,0
3371,85,-0.544258,0.001681,0.018530,-0.163970,1,1,0
3367,85,-0.640947,0.061073,0.062952,-0.083432,1,1,0
3373,85,-0.633426,0.014153,0.090320,-0.254926,1,1,0
3364,85,-0.621276,0.035226,0.039129,-0.131348,1,1,0
3384,85,-0.577729,0.033323,-0.147570,-0.101326,1,1,0
3392,85,-0.542951,0.120918,-0.055493,-0.080938,1,1,0
3390,85,-0.459044,0.032447,-0.071147,0.012645,1,1,0
3375,85,-0.510940,0.035505,0.051047,-0.126975,1,1,0
3374,85,-0.570137,0.014689,0.108376,-0.103181,1,1,0
3396,85,-0.455503,0.067321,-0.064792,-0.055427,1,1,0
3387,85,-0.518173,-0.041011,-0.076930,-0.144764,1,1,0
3369,85,-0.535777,-0.062396,0.008977,0.008422,1,1,0
3391,85,-0.520911,0.004155,-0.097246,-0.014317,1,1,0
3360,85,-0.538770,-0.029413,0.043630,-0.132785,1,1,0
3372,85,-0.686055,0.051685,0.022009,-0.114434,1,0,0
3368,85,-0.569927,0.046254,0.050636,-0.089781,1,1,0
3380,85,-0.567985,0.010109,-0.035564,-0.018810,1,1,0
3393,85,-0.490883,0.064181,-0.050329,-0.032546,1,1,0
3395,85,-0.567244,0.021853,-0.015334,-0.052440,1,1,0
3403,86,-0.654269,0.010656,0.047962,-0.095602,1,1,0
3433,86,-0.472020,0.017896,-0.011411,-0.074088,1,1,0
3428,86,-0.463816,-0.007375,-0.076816,-0.086973,1,1,0
3410,86,-0.573227,0.040163,0.043159,-0.121200,1,1,0
3435,86,-0.540541,-0.039184,-0.135529,-0.076659,1,1,0
3419,86,-0.521181,0.032663,0.038383,-0.171997,1,1,0
3436,86,-0.407016,-0.036134,-0.098090,-0.020004,0,1,0
3438,86,-0.571959,-0.001835,-0.028097,-0.106937,1,1,0
3430,86,-0.511363,-0.049430,-0.144847,-0.022698,1,1,0
3402,86,-0.565354,0.005983,-0.036465,-0.167105,1,1,0
3429,86,-0.516842,-0.110858,-0.013930,-0.015928,0,1,0
3412,86,-0.647011,-0.069208,0.031622,-0.115728,1,1,0
3423,86,-0.609647,-0.045338,-0.037327,-0.076891,1,1,0
3400,86,-0.613029,0.124748,0.009701,-0.089312,1,1,0
3407,86,-0.644061,-0.039711,0.025863,-0.163891,1,1,0
3418,86,-0.624362,0.090801,0.026472,-0.039914,1,1,0
3408,86,-0.622263,0.090685,0.039815,-0.137563,1,1,0
3409,86,-0.493731,0.006232,0.074104,-0.092649,1,1,0
3411,86,-0.525207,0.137516,0.078180,-0.120474,1,1,0
3425,86,-0.564351,0.033252,-0.027448,-0.071105,1,1,0
3415,86,-0.557286,0.041718,0.051968,-0.144335,1,1,0
3426,86,-0.541581,0.011277,-0.091542,-0.062589,1,1,0
3431,86,-0.490061,0.011868,-0.102504,-0.085507,1,1,0
3422,86,-0.474273,-0.034098,-0.000979,-0.104477,1,1,0
3404,86,-0.555627,0.023034,0.089393,-0.120045,1,1,0
3437,86,-0.505911,0.019924,-0.111838,-0.014978,1,1,0
3424,86,-0.497459,0.032190,-0.115928,-0.140980,1,1,0
3432,86,-0.473621,-0.023316,-0.092921,-0.185042,1,1,0
3427,86,-0.532699,0.047301,-0.126362,-0.079233,1,1,0
3439,86,-0.523969,0.047776,-0.069991,-0.043910,1,1,0
3417,86,-0.538968,0.082059,0.046020,-0.155461,1,1,0
3434,86,-0.602066,-0.031394,-0.007291,-0.134701,1,1,0
3416,86,-0.577373,-0.013116,0.063378,-0.132219,1,1,0
3421,86,-0.476786,0.024308,0.012444,-0.122946,1,1,0
3406,86,-0.636407,-0.076469,0.083335,-0.083776,1,1,0
3414,86,-0.552839,0.086989,0.055839,-0.262118,1,1,0
3413,86,-0.518821,0.011900,0.048559,-0.119498,1,1,0
3401,86,-0.613875,0.005387,0.090781,-0.086249,1,1,0
3420,86,-0.539609,-0.057022,-0.045127,-0.139975,1,1,0
3405,86,-0.567395,0.051879,0.058647,-0.046062,1,1,0
3476,87,-0.529608,0.064185,0.035764,-0.076194,1,1,0
3450,87,-0.521253,0.055458,0.079870,-0.076989,1,1,0
3469,87,-0.546070,0.010180,-0.136917,-0.012368,1,1,0
3449,87,-0.444771,0.088794,-0.010760,-0.103531,1,1,0
3462,87,-0.548632,0.044678,-0.039923,-0.067803,1,1,0
3443,87,-0.608957,-0.019574,0.054014,-0.178128,1,1,0
3452,87,-0.661037,-0.013409,0.054947,-0.044711,1,1,0
3459,87,-0.538944,-0.040968,0.119751,-0.096134,1,1,0
3460,87,-0.542509,0.052863,-0.129492,0.022130,1,1,0
3456,87,-0.544918,-0.014033,0.098181,-0.144040,1,1,0
3470,87,-0.494463,-0.079480,0.025957,-0.109037,1,1,0
3467,87,-0.592551,-0.038193,-0.102544,-0.104660,1,1,0
3479,87,-0.474898,0.019439,-0.129547,-0.094131,1,1,0
3440,87,-0.474790,0.028812,0.027953,-0.134217,1,1,0
3464,87,-0.550630,-0.005626,-0.045048,-0.100276,1,1,0
3472,87,-0.507994,0.001815,-0.046806,-0.072216,1,1,0
3461,87,-0.594023,-0.000457,-0.054729,-0.108892,1,1,0
3451,87,-0.609757,0.089119,0.032770,-0.108433,1,1,0
3447,87,-0.558166,0.105184,0.123087,-0.208156,1,1,0
3466,87,-0.576171,-0.015097,-0.186091,0.031504,1,1,0
3473,87,-0.533417,0.078977,-0.104067,-0.002714,1,1,0
3457,87,-0.590020,0.049823,0.090873,-0.050821,1,1,0
3441,87,-0.591221,0.051131,0.038511,-0.088881,1,1,0
3454,87,-0.593154,0.056372,0.053662,-0.070819,1,1,0
3474,87,-0.564019,-0.092437,-0.115698,-0.132746,1,1,0
3471,87,-0.543441,0.064550,-0.091440,-0.023405,1,1,0
3455,87,-0.667381,-0.018131,0.103716,-0.113478,1,1,0
3453,87,-0.539930,0.060560,0.008295,-0.132977,1,1,0
3458,87,-0.560087,0.078955,0.013621,-0.149012,1,1,0
3444,87,-0.600380,0.036804,0.085268,-0.168718,1,1,0
3475,87,-0.528995,0.011341,-0.012880,-0.015833,1,1,0
3477,87,-0.606383,0.004631,-0.097014,-0.071870,1,1,0
3478,87,-0.459848,0.082383,-0.093383,-0.078469,1,1,0
3446,87,-0.600825,0.004686,0.050943,-0.118463,1,1,0
3445,87,-0.607996,0.072871,0.043163,0.045234,1,1,0
3448,87,-0.489116,0.049094,0.006731,-0.053810,1,1,0
3442,87,-0.622923,0.019667,0.157602,-0.158690,1,1,0
3468,87,-0.561676,0.090432,-0.069080,-0.157762,1,1,0
3463,87,-0.493047,-0.058180,-0.088453,-0.009899,1,1,0
3465,87,-0.551632,0.011589,-0.060796,-0.075822,1,1,0
3497,88,-0.580802,0.095967,-0.023936,-0.141700,1,1,0
3514,88,-0.535072,0.141401,-0.050827,-0.110133,1,1,0
3502,88,-0.504831,0.033252,-0.052924,-0.039932,1,1,0
3489,88,-0.580198,0.061031,0.121009,-0.126511,1,1,0
3506,88,-0.621119,0.002358,-0.080678,-0.056758,1,1,0
3491,88,-0.632367,0.061227,-0.033481,-0.033749,1,1,0
3511,88,-0.573322,-0.035218,-0.129369,-0.005410,1,1,0
3503,88,-0.502467,0.019645,0.026771,-0.099523,1,1,0
3513,88,-0.576464,0.036230,-0.107847,-0.068433,1,1,0
3519,88,-0.510368,-0.036818,-0.035233,-0.098803,1,1,0
3487,88,-0.557468,0.021044,0.160371,-0.008876,1,1,0
3504,88,-0.553003,0.057161,-0.079293,-0.112756,1,1,0
3501,88,-0.526072,0.015039,-0.094608,-0.084559,1,1,0
3485,88,-0.670212,0.003948,0.071637,-0.172071,1,1,0
3480,88,-0.579635,0.069763,0.031429,-0.054511,1,1,0
3512,88,-0.585424,-0.009803,-0.080244,-0.114139,1,1,0
3515,88,-0.569644,0.061829,-0.039262,-0.014495,1,1,0
3500,88,-0.523765,-0.001108,-0.076495,-0.084169,1,1,0
3486,88,-0.517854,0.098327,0.074882,-0.132292,1,1,0
3481,88,-0.580831,0.066081,-0.000778,-0.144335,1,1,0
3495,88,-0.554704,0.084191,0.050143,-0.204925,1,1,0
3499,88,-0.548346,0.107175,0.097679,-0.034523,1,1,0
3482,88,-0.601508,-0.057932,0.101526,-0.087553,1,1,0
3498,88,-0.674713,0.033695,0.097746,-0.068675,1,1,0
3493,88,-0.496196,-0.003101,0.018168,-0.087573,1,1,0
3488,88,-0.592550,0.091041,0.000583,-0.141939,1,1,0
3484,88,-0.588227,0.096986,0.003947,-0.140311,1,1,0
3507,88,-0.530205,-0.020453,-0.030902,-0.071031,1,1,0
3516,88,-0.498696,-0.108563,-0.013306,-0.001864,0,1,0
3509,88,-0.582487,-0.084783,-0.086715,-0.059814,1,1,0
3483,88,-0.524515,0.047960,0.085446,-0.099041,1,1,0
3508,88,-0.543144,0.020967,-0.087262,-0.028491,1,1,0
3518,88,-0.557317,0.036240,-0.015979,-0.071377,1,1,0
3490,88,-0.575705,0.032812,0.047854,-0.010633,1,1,0
3505,88,-0.572051,0.018670,-0.105129,-0.045941,1,1,0
3494,88,-0.551092,-0.002531,0.052869,-0.071823,1,1,0
3510,88,-0.562048,0.009708,-0.182561,-0.066048,1,1,0
3492,88,-0.604800,0.063052,0.049118,-0.135463,1,1,0
3517,88,-0.554006,0.073617,-0.184642,-0.005175,1,1,0
3496,88,-0.528659,0.048940,0.064289,-0.048069,1,1,0
3524,89,-0.543322,0.042202,0.052597,-0.113861,1,1,0
3522,89,-0.556236,0.007401,0.062532,-0.139734,1,1,0
3555,89,-0.562009,-0.098052,0.013541,-0.141091,1,1,0
3558,89,-0.557227,-0.030417,-0.127429,-0.046828,1,1,0
3547,89,-0.432415,-0.066441,-0.079835,-0.056104,0,1,0
3534,89,-0.576949,-0.007579,0.118435,-0.144016,1,1,0
3540,89,-0.550022,-0.049562,-0.078272,-0.008700,1,1,0
3544,89,-0.539538,0.043295,-0.084384,-0.045055,1,1,0
3537,89,-0.583484,0.141303,0.061301,-0.088185,1,1,0
3549,89,-0.611876,0.069373,-0.097802,-0.030223,1,1,0
3548,89,-0.619856,0.062243,-0.107713,-0.092277,1,1,0
3520,89,-0.588544,-0.028895,0.024853,-0.073582,1,1,0
3556,89,-0.619612,0.011086,-0.094729,0.017777,1,1,0
3551,89,-0.669931,-0.019328,-0.066942,-0.078876,1,1,0
3532,89,-0.560212,0.012167,0.070404,-0.096128,1,1,0
3546,89,-0.466115,0.055036,-0.082705,-0.014238,1,1,0
3527,89,-0.574213,0.103925,0.013374,-0.107566,1,1,0
3539,89,-0.431211,0.029515,0.041426,-0.042328,1,1,0
3557,89,-0.509681,0.053380,-0.043735,-0.074251,1,1,0
3559,89,-0.569665,-0.011311,0.021548,-0.064595,1,1,0
3533,89,-0.618539,-0.091655,0.094486,-0.045179,1,1,0
3554,89,-0.585538,-0.041479,-0.129421,-0.157360,1,1,0
3538,89,-0.516798,-0.055351,0.064227,-0.119833,1,1,0
3536,89,-0.534121,0.106976,-0.027958,-0.112942,1,1,0
3525,89,-0.495936,0.029991,0.037648,-0.013434,1,1,0
3531,89,-0.531078,-0.069465,0.110540,-0.047232,1,1,0
3530,89,-0.547843,-0.081719,0.060030,-0.104569,1,1,0
3542,89,-0.468892,0.043621,-0.135877,-0.110853,1,1,0
3550,89,-0.553519,-0.024274,-0.076687,0.024522,1,1,0
3529,89,-0.569071,0.094438,0.040247,-0.043312,1,1,0
3523,89,-0.595680,-0.062041,0.005475,-0.121514,1,1,0
3553,89,-0.519489,-0.020094,0.014633,-0.013328,1,1,0
3528,89,-0.510805,-0.033647,0.025438,-0.076475,1,1,0
3541,89,-0.518104,0.010804,-0.089504,-0.058546,1,1,0
3526,89,-0.591471,-0.032558,-0.028238,-0.112092,1,1,0
3521,89,-0.514158,0.070640,0.012931,-0.066996,1,1,0
3543,89,-0.546415,0.082941,-0.038543,-0.084563,1,1,0
3545,89,-0.589262,0.054991,-0.019344,-0.028630,1,1,0
3552,89,-0.480616,-0.047794,-0.065297,-0.055073,1,1,0
3535,89,-0.628830,0.019767,-0.018721,-0.023258,1,1,0
3590,90,-0.642208,-0.006430,-0.058887,-0.114350,1,1,0
3584,90,-0.555412,-0.007203,-0.086864,-0.033221,1,1,0
3561,90,-0.561418,0.127165,-0.006616,-0.115216,1,1,0
3575,90,-0.584630,0.027448,0.001732,0.004931,1,1,0
3566,90,-0.484488,0.071946,0.128334,-0.129718,1,1,0
3597,90,-0.504002,-0.074850,-0.091857,-0.030759,1,1,0
3570,90,-0.546558,0.027747,0.075112,-0.134835,1,1,0
3581,90,-0.640365,0.038854,0.088872,-0.101520,1,1,0
3572,90,-0.537191,0.013517,0.143404,-0.085311,1,1,0
3564,90,-0.493744,0.067600,0.062239,-0.133276,1,1,0
3576,90,-0.596948,0.043479,0.218622,-0.030892,1,1,0
3563,90,-0.524955,0.023414,0.002901,-0.118903,1,1,0
3592,90,-0.493841,-0.092122,-0.152043,-0.096886,1,1,0
3586,90,-0.630894,-0.063858,-0.061330,-0.037721,1,1,0
3577,90,-0.497148,-0.018087,0.054043,-0.042409,1,1,0
3583,90,-0.501579,0.036761,-0.015644,-0.101304,1,1,0
3593,90,-0.439727,0.002775,-0.112838,-0.036399,1,1,0
3595,90,-0.473519,0.026017,-0.083349,-0.082073,1,1,0
3591,90,-0.454087,-0.097359,-0.144564,0.033996,0,1,0
3599,90,-0.492460,-0.013152,-0.089532,-0.004057,1,1,0
3568,90,-0.557639,0.026690,0.001342,-0.170743,1,1,0
3585,90,-0.515405,0.027589,-0.134759,-0.068039,1,1,0
3598,90,-0.522058,-0.015409,-0.099322,0.066654,1,1,0
3582,90,-0.558334,-0.009990,-0.069725,-0.114903,1,1,0
3562,90,-0.558173,-0.083781,0.096961,-0.115142,1,1,0
3560,90,-0.461272,-0.031020,0.095421,-0.146017,1,1,0
3594,90,-0.497818,-0.003460,-0.110814,-0.059375,1,1,0
3565,90,-0.533000,-0.040940,-0.013906,-0.181731,1,1,0
3573,90,-0.557329,-0.037760,0.059643,-0.113954,1,1,0
3569,90,-0.632876,0.095896,0.029707,-0.016242,1,1,0
3567,90,-0.482800,0.100422,0.057832,-0.128784,1,1,0
3574,90,-0.589409,0.059886,0.007755,-0.107589,1,1,0
3580,90,-0.524114,-0.013189,-0.065872,-0.151537,1,1,0
3588,90,-0.562882,0.024068,-0.119053,-0.034225,1,1,0
3571,90,-0.550948,0.052647,0.112314,-0.146670,1,1,0
3589,90,-0.444519,-0.032127,-0.067552,-0.055985,1,1,0
3587,90,-0.478031,-0.000345,-0.054572,0.014000,1,1,0
3596,90,-0.514461,0.101493,-0.111584,-0.078842,1,1,0
3578,90,-0.587729,0.021789,0.142302,-0.127810,1,1,0
3579,90,-0.502990,0.044129,0.063095,-0.136505,1,1,0
3635,91,-0.516585,-0.035072,-0.098962,0.002630,1,1,0
3601,91,-0.649218,-0.019237,0.073402,-0.057841,1,1,0
3614,91,-0.526756,0.015522,0.010034,-0.057124,1,1,0
3621,91,-0.506029,0.039522,0.005021,-0.044559,1,1,0
3637,91,-0.456325,-0.054178,0.034368,-0.060523,1,1,0
3631,91,-0.578527,0.004266,-0.118311,-0.053939,1,1,0
3632,91,-0.555636,0.021634,-0.025351,-0.053671,1,1,0
3624,91,-0.586793,0.032187,-0.046236,-0.056972,1,1,0
3611,91,-0.569406,0.062046,0.055865,-0.067245,1,1,0
3625,91,-0.591098,-0.033203,-0.096723,-0.031478,1,1,0
3630,91,-0.575472,-0.146566,-0.078790,-0.046306,0,1,0
3629,91,-0.615264,0.024444,-0.072602,-0.061245,1,1,0
3627,91,-0.569526,-0.015344,-0.062105,-0.000314,1,1,0
3612,91,-0.564304,-0.019261,0.028543,-0.027721,1,1,0
3619,91,-0.670334,-0.025604,0.063743,-0.032366,1,1,0
3607,91,-0.590004,-0.017681,0.141156,-0.044506,1,1,0
3602,91,-0.558666,0.110599,0.162385,-0.140925,1,1,0
3617,91,-0.592467,-0.002400,0.029751,-0.079224,1,1,0
3600,91,-0.525965,0.000477,0.090625,-0.030733,1,1,0
3609,91,-0.614324,0.057596,-0.028443,-0.074556,1,1,0
3623,91,-0.550744,-0.089032,-0.123479,-0.076734,1,1,0
3636,91,-0.590268,0.119874,-0.019802,-0.045521,1,1,0
3634,91,-0.512247,0.087208,0.046175,-0.069835,1,1,0
3616,91,-0.630207,0.042217,0.123526,-0.113639,1,1,0
3639,91,-0.522433,0.037177,-0.044033,-0.005726,1,1,0
3605,91,-0.486122,0.069106,0.079729,-0.156051,1,1,0
3620,91,-0.500214,0.083545,-0.046926,-0.099667,1,1,0
3618,91,-0.549514,0.015101,0.113565,-0.045120,1,1,0
3633,91,-0.562594,-0.004934,-0.081512,-0.143145,1,1,0
3638,91,-0.612298,0.078054,-0.101123,-0.045466,1,1,0
3608,91,-0.512254,0.034047,0.051164,-0.102033,1,1,0
3604,91,-0.554976,-0.018153,0.089247,-0.073850,1,1,0
3628,91,-0.536018,0.077908,-0.145417,0.010644,1,1,0
3603,91,-0.573554,0.001406,0.045293,-0.137345,1,1,0
3626,91,-0.525368,0.012583,-0.078346,-0.048160,1,1,0
3613,91,-0.611781,0.101723,0.043406,-0.046529,1,1,0
3610,91,-0.580658,-0.042628,0.046866,-0.140743,1,1,0
3622,91,-0.568265,-0.046891,-0.079037,0.012590,1,1,0
3615,91,-0.580638,-0.051426,-0.040105,-0.140279,1,1,0
3606,91,-0.490382,0.033865,0.067160,-0.071636,1,1,0
3670,92,-0.596370,0.053695,-0.029111,-0.128267,1,1,0
3657,92,-0.507535,0.036965,0.091787,-0.097859,1,1,0
3645,92,-0.557924,0.017281,0.009338,-0.105440,1,1,0
3672,92,-0.461632,-0.010182,-0.013873,-0.072740,1,1,0
3640,92,-0.554683,0.043017,0.032565,-0.150410,1,1,0
3676,92,-0.524826,-0.032276,-0.121524,-0.050914,1,1,0
3667,92,-0.490031,-0.011246,-0.043540,-0.033433,1,1,0
3677,92,-0.554438,0.053787,-0.068807,-0.093669,1,1,0
3643,92,-0.533047,0.014733,0.030455,0.012732,1,1,0
3655,92,-0.623818,0.043681,-0.013501,-0.055572,1,1,0
3646,92,-0.639547,0.083810,0.112318,-0.179422,1,1,0
3642,92,-0.581462,-0.001727,0.072357,-0.146931,1,1,0
3674,92,-0.479894,0.007775,-0.085341,-0.030654,1,1,0
3659,92,-0.585080,0.011315,0.083965,-0.129387,1,1,0
3675,92,-0.537552,-0.067653,-0.021551,-0.050918,1,1,0
3660,92,-0.511494,-0.022754,-0.040791,-0.101004,1,1,0
3679,92,-0.454397,0.039539,-0.093212,0.074860,1,1,0
3654,92,-0.530060,-0.028109,0.030656,-0.107490,1,1,0
3649,92,-0.617377,-0.040661,-0.000427,-0.129718,1,1,0
3662,92,-0.544348,0.002696,0.002255,-0.101584,1,1,0
3678,92,-0.522615,-0.009721,-0.101923,-0.158209,1,1,0
3664,92,-0.588458,0.012552,-0.007965,-0.037546,1,1,0
3666,92,-0.548814,0.013355,-0.124780,-0.075558,1,1,0
3668,92,-0.470707,0.032647,-0.161553,-0.010766,1,1,0
3663,92,-0.467228,-0.006669,-0.148869,-0.133569,1,1,0
3673,92,-0.483583,0.035169,-0.157689,-0.029920,1,1,0
3644,92,-0.550128,0.151824,0.132777,-0.119820,1,1,0
3652,92,-0.567402,0.002752,0.059388,-0.062255,1,1,0
3653,92,-0.560927,-0.002732,0.121302,-0.026657,1,1,0
3650,92,-0.567023,0.046093,0.138799,-0.071602,1,1,0
3671,92,-0.523489,0.089348,-0.112733,-0.032136,1,1,0
3647,92,-0.526323,0.031089,0.161378,-0.118397,1,1,0
3665,92,-0.488706,0.062254,0.012892,-0.051512,1,1,0
3648,92,-0.576912,0.038231,0.156680,-0.024699,1,1,0
3641,92,-0.559667,0.038613,0.023293,-0.123033,1,1,0
3658,92,-0.606196,0.036527,-0.051863,-0.148531,1,1,0
3656,92,-0.566972,0.027377,-0.064768,-0.108226,1,1,0
3669,92,-0.454732,0.011501,-0.028152,0.032603,1,1,0
3651,92,-0.482769,0.087291,0.113423,-0.172502,1,1,0
3661,92,-0.502856,-0.035965,-0.050354,-0.048663,1,1,0
3697,93,-0.541557,0.063052,0.060237,-0.100357,1,1,0
3682,93,-0.498698,0.069841,0.003408,-0.222920,1,1,0
3706,93,-0.448399,-0.040541,0.012828,-0.083716,1,1,0
3696,93,-0.615426,-0.092400,-0.038950,-0.120239,1,1,0
3713,93,-0.449422,0.006597,-0.133415,-0.021007,1,1,0
3708,93,-0.529421,0.021980,-0.050840,-0.071685,1,1,0
3715,93,-0.614913,-0.071663,-0.106335,-0.063319,1,1,0
3704,93,-0.514554,0.109672,0.005297,-0.044000,1,1,0
3685,93,-0.548750,-0.009832,0.072585,-0.015937,1,1,0
3698,93,-0.535765,-0.018811,0.020234,-0.143091,1,1,0
3699,93,-0.655085,0.007818,0.025713,-0.167329,1,1,0
3695,93,-0.653619,-0.013616,0.054566,-0.105815,1,1,0
3700,93,-0.516255,0.063270,-0.067239,-0.127911,1,1,0
3694,93,-0.571990,-0.008917,0.013581,-0.116510,1,1,0
3680,93,-0.508544,0.073897,0.036538,-0.054143,1,1,0
3688,93,-0.537191,-0.063021,0.004357,-0.185052,1,1,0
3702,93,-0.592603,-0.007927,-0.130502,0.029081,1,1,0
3717,93,-0.493967,0.071687,-0.053789,-0.088904,1,1,0
3712,93,-0.500805,-0.006900,-0.033307,-0.024526,1,1,0
3718,93,-0.570015,0.024014,-0.016588,-0.061586,1,1,0
3705,93,-0.534442,0.003395,-0.071167,-0.097940,1,1,0
3691,93,-0.535312,0.104457,0.051805,-0.107807,1,1,0
3690,93,-0.575488,0.106807,0.034831,-0.095643,1,1,0
3719,93,-0.464662,-0.033400,-0.027578,-0.065118,1,1,0
3683,93,-0.613640,0.053093,0.046341,-0.063740,1,1,0
3709,93,-0.539962,0.046411,-0.082440,-0.136738,1,1,0
3714,93,-0.600794,-0.062963,0.005647,-0.020940,1,1,0
3692,93,-0.589271,-0.017540,0.012586,-0.114423,1,1,0
3687,93,-0.459205,0.045576,-0.018048,-0.172729,1,1,0
3710,93,-0.550115,0.037833,-0.069068,-0.048943,1,1,0
3707,93,-0.513049,0.014695,0.009113,-0.041242,1,1,0
3716,93,-0.588913,-0.054289,-0.208915,-0.035130,1,1,0
3684,93,-0.619012,-0.024734,0.053816,-0.076629,1,1,0
3693,93,-0.557258,0.041061,0.102526,-0.025137,1,1,0
3686,93,-0.537145,0.081739,0.087678,-0.071319,1,1,0
3689,93,-0.543954,0.102446,0.086314,-0.158123,1,1,0
3711,93,-0.526986,0.036873,-0.171582,-0.064035,1,1,0
3703,93,-0.511237,-0.013290,0.010346,-0.016443,1,1,0
3701,93,-0.551325,0.048018,-0.006636,-0.033928,1,1,0
3681,93,-0.630199,0.045440,0.013335,-0.065866,1,1,0
3753,94,-0.525780,0.138376,-0.073674,-0.022133,1,1,0
3734,94,-0.565541,0.014764,-0.067900,-0.060969,1,1,0
3725,94,-0.591774,0.014578,-0.062194,-0.016246,1,1,0
3722,94,-0.598834,0.073739,-0.020732,-0.058533,1,1,0
3740,94,-0.515866,0.008995,-0.006211,-0.035635,1,1,0
3738,94,-0.581260,0.092083,-0.066452,-0.093117,1,1,0
3728,94,-0.564464,-0.012589,-0.155217,0.048654,1,1,0
3758,94,-0.562214,-0.017862,-0.038600,-0.123545,1,1,0
3726,94,-0.548136,0.079053,-0.047644,-0.021431,1,1,0
3736,94,-0.514213,0.033889,-0.051686,-0.042303,1,1,0
3756,94,-0.510302,0.067471,-0.018860,0.035166,1,1,0
3757,94,-0.548127,-0.067676,-0.115834,-0.055307,1,1,0
3747,94,-0.499517,0.026939,0.020693,-0.081709,1,1,0
3735,94,-0.580342,0.004957,-0.125520,-0.105022,1,1,0
3745,94,-0.581236,-0.054692,-0.130932,-0.157759,1,1,0
3720,94,-0.487286,0.063981,-0.020111,-0.061577,1,1,0
3732,94,-0.551541,-0.012939,0.017217,0.020871,1,1,0
3754,94,-0.602013,0.054820,-0.131781,-0.124198,1,1,0
3723,94,-0.496494,0.133378,-0.005567,-0.095130,1,1,0
3741,94,-0.537151,0.045859,-0.026985,-0.165761,1,1,0
3755,94,-0.578142,0.022176,-0.132508,-0.103247,1,1,0
3746,94,-0.496094,0.066603,-0.080665,-0.076420,1,1,0
3739,94,-0.536049,0.000544,-0.062065,-0.052993,1,1,0
3749,94,-0.458989,0.014714,-0.019390,-0.109511,1,1,0
3748,94,-0.607633,0.018666,-0.040632,-0.085164,1,1,0
3721,94,-0.631234,-0.055259,0.032355,-0.053726,1,1,0
3730,94,-0.515147,0.022481,0.031912,-0.016085,1,1,0
3737,94,-0.498339,0.048595,0.025621,0.026146,1,1,0
3742,94,-0.408786,0.003514,-0.087275,0.011778,0,1,0
3731,94,-0.627021,-0.000892,-0.032593,-0.084504,1,1,0
3751,94,-0.538152,-0.032092,-0.083179,-0.127694,1,1,0
3733,94,-0.459014,0.033175,-0.079488,-0.025515,1,1,0
3727,94,-0.520569,0.068708,-0.048137,-0.092512,1,1,0
3750,94,-0.562021,-0.031523,-0.098743,-0.035738,1,1,0
3724,94,-0.483799,0.060459,-0.141179,-0.075720,1,1,0
3729,94,-0.488484,0.081166,-0.130790,-0.089875,1,1,0
3752,94,-0.577820,0.080041,-0.108539,-0.007213,1,1,0
3743,94,-0.559388,-0.015375,-0.068669,-0.045008,1,1,0
3744,94,-0.522042,-0.055309,-0.133450,-0.085266,1,1,0
3759,94,-0.498157,0.055499,-0.162720,-0.039955,1,1,0
3787,95,-0.528435,-0.057630,-0.084633,-0.061971,1,1,0
3786,95,-0.446775,-0.058754,-0.106943,-0.099335,1,1,0
3793,95,-0.435371,0.037162,-0.070737,-0.050752,1,1,0
3796,95,-0.491440,0.030661,-0.057831,-0.056430,1,1,0
3763,95,-0.513259,-0.073076,-0.066427,0.003405,1,1,0
3769,95,-0.543329,-0.058419,0.016525,0.071789,1,1,0
3784,95,-0.557580,-0.009329,-0.058740,0.030729,1,1,0
3772,95,-0.640316,0.033936,-0.113064,-0.042325,1,1,0
3775,95,-0.560371,0.155621,-0.080462,-0.022103,1,0,0
3771,95,-0.647860,0.022879,-0.041836,-0.116035,1,1,0
3761,95,-0.572624,-0.027308,-0.138406,0.040145,1,1,0
3778,95,-0.507435,0.043110,-0.083657,-0.026969,1,1,0
3779,95,-0.577668,-0.009532,-0.044780,-0.056696,1,1,0
3764,95,-0.605934,-0.034258,-0.084627,0.089783,1,1,0
3797,95,-0.545953,0.030886,-0.062094,-0.001499,1,1,0
3798,95,-0.475648,-0.042504,0.024183,-0.077101,1,1,0
3777,95,-0.477088,0.037274,-0.055932,-0.043506,1,1,0
3783,95,-0.548586,-0.030272,-0.072305,-0.014597,1,1,0
3760,95,-0.672809,0.081514,-0.069061,0.002661,1,0,0
3789,95,-0.551517,-0.015159,-0.094934,-0.074489,1,1,0
3791,95,-0.512150,0.079227,-0.114566,-0.074504,1,1,0
3768,95,-0.599005,0.058440,-0.059491,0.004673,1,1,0
3785,95,-0.462873,-0.001970,-0.078647,-0.035862,1,1,0
3794,95,-0.567414,-0.029313,-0.054603,-0.102176,1,1,0
3774,95,-0.563081,0.042663,-0.115076,-0.019123,1,1,0
3773,95,-0.628815,0.049434,-0.033221,-0.045111,1,1,0
3782,95,-0.523309,0.007842,-0.077427,-0.044662,1,1,0
3765,95,-0.612857,0.107607,-0.099539,0.033325,1,1,0
3780,95,-0.531732,0.050912,-0.105012,-0.079772,1,1,0
3799,95,-0.462560,0.004979,-0.107117,-0.058014,1,1,0
3790,95,-0.545254,-0.029556,-0.017152,0.064149,1,1,0
3766,95,-0.453585,-0.030035,-0.020117,-0.059087,1,1,0
3767,95,-0.497871,0.005917,-0.088524,-0.054324,1,1,0
3776,95,-0.528043,0.049305,-0.077873,-0.080924,1,1,0
3770,95,-0.615235,0.106189,-0.027926,-0.069690,1,1,0
3788,95,-0.529697,-0.041967,-0.103451,-0.095146,1,1,0
3762,95,-0.561240,-0.003344,-0.139825,-0.072500,1,1,0
3795,95,-0.481732,-0.119991,-0.095228,0.035256,0,1,0
3781,95,-0.503275,-0.033086,-0.016297,-0.008593,1,1,0
3792,95,-0.529501,-0.059347,-0.028235,0.012301,1,1,0
3820,96,-0.538346,0.013212,-0.075569,-0.105789,1,1,0
3813,96,-0.507408,-0.079914,-0.187110,-0.075484,1,1,0
3835,96,-0.566561,-0.020523,-0.142495,0.016795,1,1,0
3829,96,-0.603067,0.127762,-0.105628,-0.092574,1,1,0
3824,96,-0.507124,-0.015133,-0.094649,-0.078428,1,1,0
3809,96,-0.579062,0.006329,-0.135006,-0.048313,1,1,0
3821,96,-0.493010,0.008307,-0.036961,-0.023213,1,1,0
3805,96,-0.532201,0.028619,-0.049244,-0.115168,1,1,0
3816,96,-0.623752,-0.037237,-0.060480,-0.096800,1,1,0
3830,96,-0.518394,-0.025262,-0.081672,-0.143469,1,1,0
3839,96,-0.471743,-0.049677,-0.070439,-0.101977,1,1,0
3818,96,-0.507607,0.057524,-0.096251,0.043042,1,1,0
3831,96,-0.486407,-0.066992,-0.123670,-0.066513,1,1,0
3826,96,-0.454004,-0.010972,-0.020180,-0.105715,1,1,0
3838,96,-0.537471,0.031027,-0.104293,-0.094467,1,1,0
3811,96,-0.594354,0.023205,-0.082288,-0.108813,1,1,0
3800,96,-0.553699,0.040397,-0.039561,-0.060062,1,1,0
3807,96,-0.597155,0.001851,-0.037514,-0.013420,1,1,0
3819,96,-0.556197,0.036309,-0.041623,0.014955,1,1,0
3836,96,-0.514117,0.021184,-0.136405,-0.092231,1,1,0
3825,96,-0.531961,-0.029470,-0.117515,-0.069511,1,1,0
3815,96,-0.686646,0.127797,-0.017858,-0.065476,1,0,0
3802,96,-0.575800,-0.016938,-0.040826,-0.037773,1,1,0
3814,96,-0.605730,0.070176,-0.099474,-0.067039,1,1,0
3812,96,-0.619278,0.009141,-0.107202,-0.048679,1,1,0
3823,96,-0.494612,0.056664,-0.141644,-0.043646,1,1,0
3801,96,-0.550432,-0.081198,0.048016,-0.093126,1,1,0
3803,96,-0.518410,0.075558,-0.042371,-0.099376,1,1,0
3822,96,-0.481995,-0.027609,-0.098302,-0.020880,1,1,0
3808,96,-0.632146,-0.022023,-0.118963,-0.088707,1,1,0
3828,96,-0.556526,0.050398,-0.166244,-0.072193,1,1,0
3810,96,-0.482899,0.051442,-0.045523,-0.085477,1,1,0
3827,96,-0.609843,-0.015811,-0.014783,-0.088614,1,1,0
3832,96,-0.501056,0.039201,-0.102859,-0.080708,1,1,0
3806,96,-0.619512,0.014029,-0.037233,0.008236,1,1,0
3817,96,-0.527050,0.089238,-0.088386,-0.043659,1,1,0
3834,96,-0.458593,0.050304,-0.020315,-0.105620,1,1,0
3804,96,-0.596490,0.122290,-0.011699,-0.115692,1,1,0
3833,96,-0.508959,0.008266,-0.110156,-0.074187,1,1,0
3837,96,-0.473637,-0.022563,-0.125908,-0.095137,1,1,0
3857,97,-0.521991,-0.021845,0.032399,-0.030714,1,1,0
3849,97,-0.544205,0.021018,-0.040355,-0.051947,1,1,0
3842,97,-0.502898,0.072774,-0.040538,-0.023956,1,1,0
3856,97,-0.549684,0.009905,0.008484,-0.066969,1,1,0
3868,97,-0.392780,0.084620,-0.101076,-0.049858,0,1,0
3876,97,-0.488133,0.084901,-0.007059,0.046519,1,1,0
3858,97,-0.475740,0.043480,-0.028501,-0.058771,1,1,0
3863,97,-0.381114,-0.066000,-0.167851,-0.104852,0,1,0
3878,97,-0.549406,0.096822,-0.034066,-0.090772,1,1,0
3840,97,-0.585168,-0.036268,-0.011762,-0.096138,1,1,0
3873,97,-0.433716,0.034558,-0.135655,-0.131829,1,1,0
3875,97,-0.554385,-0.015861,-0.108568,-0.003822,1,1,0
3860,97,-0.497809,-0.012347,-0.083541,-0.000590,1,1,0
3847,97,-0.597325,0.034984,-0.112933,0.002114,1,1,0
3844,97,-0.503377,0.083033,-0.024587,-0.039242,1,1,0
3867,97,-0.474269,0.000054,-0.115281,-0.036938,1,1,0
3871,97,-0.490490,-0.023552,-0.134433,0.003462,1,1,0
3864,97,-0.562419,0.010897,-0.055709,-0.086004,1,1,0
3850,97,-0.615563,0.064339,-0.128331,-0.087864,1,1,0
3870,97,-0.580516,-0.034617,-0.050303,-0.018822,1,1,0
3872,97,-0.544917,0.013683,-0.071499,0.045287,1,1,0
3841,97,-0.564765,-0.012660,-0.104011,-0.100810,1,1,0
3848,97,-0.579814,-0.007510,-0.106800,-0.131509,1,1,0
3869,97,-0.412499,0.061374,-0.021207,-0.103815,1,1,0
3855,97,-0.496942,0.074924,0.052981,0.016382,1,1,0
3853,97,-0.594736,-0.057451,-0.079096,0.035561,1,1,0
3852,97,-0.544324,0.047189,-0.136790,-0.050268,1,1,0
3843,97,-0.542909,-0.000640,-0.091349,0.033869,1,1,0
3845,97,-0.559234,0.031635,0.078779,-0.110368,1,1,0
3865,97,-0.506682,-0.003347,-0.068300,-0.075107,1,1,0
3879,97,-0.468961,-0.092990,-0.092143,-0.012262,0,1,0
3866,97,-0.498821,0.005674,-0.122153,-0.001880,1,1,0
3846,97,-0.566639,0.076705,-0.010282,-0.012009,1,1,0
3851,97,-0.550471,0.110686,-0.120767,-0.210618,1,1,0
3862,97,-0.529711,-0.012556,0.064883,-0.060134,1,1,0
3854,97,-0.552084,0.017213,-0.036434,-0.057084,1,1,0
3859,97,-0.600394,0.061849,-0.008081,0.037392,1,1,0
3874,97,-0.498809,0.089964,0.001115,-0.024599,1,1,0
3877,97,-0.644531,0.037957,-0.078273,-0.014249,1,1,0
3861,97,-0.587606,0.037612,-0.129284,-0.003654,1,1,0
3900,98,-0.579674,-0.082569,-0.037132,-0.036596,1,1,0
3881,98,-0.532689,0.043442,-0.099086,-0.061320,1,1,0
3905,98,-0.540776,0.030282,-0.137289,-0.025594,1,1,0
3918,98,-0.552370,0.035551,-0.024241,-0.019101,1,1,0
3885,98,-0.570925,-0.080459,-0.061293,-0.041380,1,1,0
3887,98,-0.651210,-0.022705,-0.089679,-0.042471,1,1,0
3894,98,-0.561644,0.050856,-0.044248,-0.041437,1,1,0
3907,98,-0.524888,-0.002270,-0.033494,-0.003442,1,1,0
3916,98,-0.606228,-0.005660,-0.186574,-0.010744,1,1,0
3880,98,-0.567454,0.038661,-0.180585,-0.058341,1,1,0
3901,98,-0.503661,-0.019887,-0.116518,-0.017936,1,1,0
3912,98,-0.543444,0.106380,-0.011602,-0.025911,1,1,0
3889,98,-0.565089,-0.027918,-0.085840,-0.081867,1,1,0
3893,98,-0.564217,-0.018184,-0.058546,-0.045742,1,1,0
3910,98,-0.543921,-0.000375,-0.072596,-0.074553,1,1,0
3895,98,-0.496856,0.029255,-0.053804,-0.199475,1,1,0
3909,98,-0.499321,-0.033789,-0.136018,-0.106216,1,1,0
3915,98,-0.487181,-0.010207,-0.071633,-0.074056,1,1,0
3883,98,-0.499234,0.078324,0.008876,-0.054033,1,1,0
3899,98,-0.566986,-0.013062,-0.098246,-0.064065,1,1,0
3882,98,-0.549818,0.055974,-0.098143,0.055130,1,1,0
3897,98,-0.588736,0.049281,-0.079554,0.009063,1,1,0
3896,98,-0.594120,-0.017782,-0.058613,0.027521,1,1,0
3892,98,-0.577452,0.106155,-0.033297,0.043299,1,1,0
3908,98,-0.586551,0.099237,-0.076273,0.043972,1,1,0
3898,98,-0.578967,0.010302,-0.007789,-0.076783,1,1,0
3914,98,-0.550361,-0.074999,-0.116738,-0.074936,1,1,0
3919,98,-0.478170,0.009116,-0.102611,-0.065609,1,1,0
3906,98,-0.512123,0.023668,0.005946,-0.005282,1,1,0
3904,98,-0.533425,0.062197,-0.165773,-0.095657,1,1,0
3891,98,-0.587380,0.033157,-0.059619,-0.102905,1,1,0
3884,98,-0.527057,0.069704,-0.007374,-0.023430,1,1,0
3902,98,-0.561475,0.003480,-0.102941,0.019794,1,1,0
3917,98,-0.610129,-0.017994,-0.121650,-0.050089,1,1,0
3890,98,-0.534604,0.018970,-0.098589,-0.021947,1,1,0
3911,98,-0.443963,-0.003969,-0.087138,-0.108326,1,1,0
3913,98,-0.510817,-0.022635,0.008729,0.010563,1,1,0
3886,98,-0.467725,-0.019959,-0.096343,-0.081328,1,1,0
3888,98,-0.492224,-0.017528,-0.023812,-0.071498,1,1,0
3903,98,-0.526678,0.044513,-0.096402,-0.065929,1,1,0
3923,99,-0.492668,0.102870,-0.097625,-0.094541,1,1,0
3933,99,-0.594284,0.057974,-0.168145,-0.085931,1,1,0
3934,99,-0.565959,0.026582,-0.014739,-0.043034,1,1,0
3955,99,-0.553508,-0.011817,-0.080664,0.011696,1,1,0
3926,99,-0.555222,0.016702,0.017195,-0.001563,1,1,0
3939,99,-0.638989,0.021150,0.019273,-0.132059,1,1,0
3952,99,-0.517471,0.044875,-0.043086,-0.032125,1,1,0
3958,99,-0.534162,-0.044179,-0.004234,0.000636,1,1,0
3946,99,-0.525609,-0.109786,-0.071944,0.064483,0,1,0
3941,99,-0.614307,0.075957,-0.018048,-0.093399,1,1,0
3959,99,-0.523373,-0.018580,-0.036111,0.004157,1,1,0
3949,99,-0.555721,-0.031623,0.029442,-0.096759,1,1,0
3931,99,-0.535406,0.085786,-0.038139,-0.020159,1,1,0
3929,99,-0.571184,0.096637,0.030994,-0.045788,1,1,0
3936,99,-0.687095,-0.034054,-0.008436,-0.053559,1,0,0
3938,99,-0.532998,-0.011118,-0.039407,-0.087293,1,1,0
3944,99,-0.520508,0.066430,-0.071202,-0.033763,1,1,0
3930,99,-0.558958,0.082275,-0.112060,-0.156625,1,1,0
3948,99,-0.617455,0.021049,-0.077938,-0.027126,1,1,0
3924,99,-0.390375,-0.002345,-0.044378,-0.060721,1,1,0
3922,99,-0.550482,0.018184,-0.158177,0.026764,1,1,0
3935,99,-0.579845,-0.010401,-0.056370,-0.082631,1,1,0
3947,99,-0.538681,-0.016570,-0.102180,-0.057310,1,1,0
3950,99,-0.423376,0.027633,-0.102270,-0.112977,1,1,0
3928,99,-0.576866,0.065517,0.036906,-0.057528,1,1,0
3940,99,-0.505557,0.049109,-0.123986,-0.074229,1,1,0
3953,99,-0.558192,0.034790,-0.037550,-0.042822,1,1,0
3954,99,-0.424894,-0.034693,-0.073210,-0.005740,0,1,0
3942,99,-0.543135,-0.066594,-0.146022,0.014786,1,1,0
3932,99,-0.517447,0.019862,0.042341,-0.111854,1,1,0
3920,99,-0.495353,-0.000012,-0.094353,-0.056069,1,1,0
3951,99,-0.620581,0.018566,-0.059541,-0.092905,1,1,0
3943,99,-0.583304,0.064034,-0.118714,-0.182434,1,1,0
3925,99,-0.644039,0.058442,-0.079780,-0.061523,1,1,0
3957,99,-0.508685,0.106359,0.000470,0.005434,1,1,0
3921,99,-0.533004,0.022667,-0.120079,-0.050573,1,1,0
3937,99,-0.515030,0.003922,-0.030529,-0.039275,1,1,0
3945,99,-0.560174,0.010949,-0.109994,-0.109592,1,1,0
3956,99,-0.490179,-0.006507,0.004991,-0.077871,1,1,0
3927,99,-0.534039,0.062556,-0.039982,-0.017090,1,1,0
3961,100,-0.525806,0.015093,-0.055667,-0.006435,1,1,0
3985,100,-0.531318,0.023783,-0.035642,-0.011717,1,1,0
3992,100,-0.522459,-0.039282,-0.074768,0.004089,1,1,0
3998,100,-0.426098,0.062343,-0.078050,0.015460,1,1,0
3970,100,-0.463301,0.033325,-0.074294,-0.109790,1,1,0
3975,100,-0.582940,0.032315,-0.050062,-0.024820,1,1,0
3974,100,-0.584168,-0.030150,-0.049152,-0.032438,1,1,0
3963,100,-0.502832,0.025959,-0.008312,-0.041350,1,1,0
3962,100,-0.527301,0.079983,-0.074352,-0.048469,1,1,0
3967,100,-0.505439,0.093942,-0.062218,-0.035701,1,1,0
3976,100,-0.605857,-0.055313,-0.081593,-0.085819,1,1,0
3966,100,-0.562888,0.028254,-0.007694,-0.075885,1,1,0
3986,100,-0.542910,-0.035920,-0.092984,-0.171163,1,1,0
3980,100,-0.565563,0.078122,-0.038131,-0.074544,1,1,0
3973,100,-0.527100,0.068547,-0.034050,-0.118597,1,1,0
3981,100,-0.532636,0.025243,-0.016332,-0.126293,1,1,0
3988,100,-0.555773,0.038181,-0.017670,-0.016813,1,1,0
3960,100,-0.658226,0.040510,0.013752,-0.080974,1,1,0
3990,100,-0.454806,0.010279,0.022628,0.058378,1,1,0
3982,100,-0.491160,0.058775,-0.131134,-0.170434,1,1,0
3965,100,-0.604814,0.066156,-0.116094,-0.041831,1,1,0
3999,100,-0.492112,0.119444,-0.105002,-0.050651,1,1,0
3996,100,-0.488540,-0.028781,-0.139550,-0.018769,1,1,0
3978,100,-0.616819,-0.011644,-0.066240,-0.031562,1,1,0
3994,100,-0.596200,-0.006615,-0.099022,-0.037479,1,1,0
3984,100,-0.543986,0.024102,-0.000031,0.013612,1,1,0
3983,100,-0.523681,0.064271,-0.033588,-0.086848,1,1,0
3972,100,-0.569675,0.027179,-0.139171,-0.034500,1,1,0
3995,100,-0.540416,0.008989,-0.053010,-0.070255,1,1,0
3993,100,-0.495078,0.047082,-0.031842,-0.039745,1,1,0
3969,100,-0.598816,0.066155,-0.004352,0.014515,1,1,0
3971,100,-0.566514,0.101854,-0.044254,-0.081068,1,1,0
3987,100,-0.457768,-0.028125,-0.152456,-0.160374,1,1,0
3991,100,-0.547682,-0.066616,-0.145982,-0.016370,1,1,0
3964,100,-0.530641,-0.076332,-0.006233,-0.078203,1,1,0
3997,100,-0.506715,0.062365,-0.050789,-0.032008,1,1,0
3979,100,-0.570345,0.012611,-0.045132,-0.005638,1,1,0
3977,100,-0.576412,0.122123,-0.004048,-0.072028,1,1,0
3989,100,-0.510975,-0.068232,-0.082348,-0.055230,1,1,0
3968,100,-0.526915,-0.040617,0.016078,-0.004696,1,1,0
4006,101,-0.581212,0.113374,0.041302,0.032112,1,1,0
4011,101,-0.558370,0.093997,-0.034492,-0.059844,1,1,0
4012,101,-0.580769,-0.017101,-0.080437,0.039026,1,1,0
4025,101,-0.433160,-0.004943,-0.054518,-0.026417,1,1,0
4009,101,-0.456164,0.128472,-0.055458,-0.022745,1,1,0
4029,101,-0.523312,0.001771,0.021121,-0.058110,1,1,0
4016,101,-0.525672,-0.047831,-0.005955,-0.097652,1,1,0
4020,101,-0.546722,0.007875,-0.098855,0.000141,1,1,0
4036,101,-0.595922,-0.038834,-0.139391,0.000045,1,1,0
4039,101,-0.458877,-0.060064,-0.109057,-0.080793,1,1,0
4033,101,-0.460040,-0.087571,-0.060212,-0.044644,0,1,0
4008,101,-0.510424,-0.003592,-0.079998,-0.036665,1,1,0
4034,101,-0.549702,-0.031637,-0.018490,-0.086624,1,1,0
4017,101,-0.519739,0.036472,-0.069060,-0.013432,1,1,0
4032,101,-0.498589,0.022182,-0.102311,-0.054374,1,1,0
4015,101,-0.560575,0.041820,-0.032650,-0.018066,1,1,0
4013,101,-0.460211,0.017640,-0.028791,-0.072742,1,1,0
4038,101,-0.632241,-0.096048,-0.087632,-0.069902,0,1,0
4007,101,-0.626289,0.086276,-0.065583,-0.133799,1,1,0
4022,101,-0.574697,-0.041790,-0.068270,0.013070,1,1,0
4005,101,-0.571538,0.040354,-0.079133,-0.087368,1,1,0
4031,101,-0.526866,0.070351,-0.100411,-0.042935,1,1,0
4027,101,-0.507415,-0.005709,-0.111556,-0.074792,1,1,0
4030,101,-0.451266,0.011793,-0.074958,-0.105005,1,1,0
4010,101,-0.539636,0.133755,-0.106581,-0.029959,1,1,0
4004,101,-0.449083,0.033869,-0.088591,-0.152781,1,1,0
4001,101,-0.584407,0.055693,-0.092825,-0.050476,1,1,0
4035,101,-0.542548,-0.046093,-0.091945,-0.072582,1,1,0
4028,101,-0.518207,-0.042681,0.001969,-0.007619,1,1,0
4023,101,-0.535405,-0.055081,0.008810,-0.063693,1,1,0
4000,101,-0.574519,0.020207,-0.064880,0.035008,1,1,0
4024,101,-0.501640,0.031318,-0.047643,-0.106631,1,1,0
4002,101,-0.567333,-0.012864,-0.037276,0.009787,1,1,0
4014,101,-0.565179,-0.034314,-0.095799,-0.012073,1,1,0
4003,101,-0.518553,0.029007,-0.151400,-0.050050,1,1,0
4021,101,-0.625859,-0.058168,-0.089609,0.004575,1,1,0
4019,101,-0.586939,-0.031810,-0.036500,-0.061963,1,1,0
4037,101,-0.415270,0.011202,-0.033836,-0.048356,1,1,0
4026,101,-0.430846,0.034256,-0.045862,-0.073951,1,1,0
4018,101,-0.574634,0.115788,-0.071846,-0.048027,1,1,0
4066,102,-0.540281,0.004858,-0.038655,-0.061072,1,1,0
4046,102,-0.522783,0.135266,0.071818,0.001399,1,1,0
4074,102,-0.523940,0.027618,-0.105871,-0.073189,1,1,0
4079,102,-0.553055,0.034432,-0.016851,0.003493,1,1,0
4054,102,-0.570220,0.116951,0.158172,-0.008694,1,1,0
4071,102,-0.493396,0.073414,-0.128132,-0.020878,1,1,0
4067,102,-0.535118,0.019857,-0.125413,-0.057822,1,1,0
4051,102,-0.578710,0.007917,0.050184,-0.136467,1,1,0
4049,102,-0.546762,0.067169,0.054952,0.016414,1,1,0
4073,102,-0.621162,0.021373,-0.051244,-0.095191,1,1,0
4065,102,-0.497540,0.004175,-0.109817,0.114364,1,1,0
4042,102,-0.542880,0.002690,0.056359,0.001113,1,1,0
4061,102,-0.552790,-0.057441,-0.167784,-0.080294,1,1,0
4064,102,-0.442918,0.007320,-0.079142,-0.032716,1,1,0
4059,102,-0.550445,0.026079,0.062329,-0.016053,1,1,0
4069,102,-0.546287,-0.022849,-0.082925,-0.025073,1,1,0
4056,102,-0.513723,0.074169,0.045383,-0.016268,1,1,0
4077,102,-0.522530,-0.005609,-0.096834,-0.061492,1,1,0
4053,102,-0.434702,0.076143,0.071629,-0.017696,1,1,0
4047,102,-0.553414,0.128888,0.099181,-0.062214,1,1,0
4057,102,-0.529179,0.082547,-0.004186,0.041126,1,1,0
4078,102,-0.501677,-0.017181,-0.160567,-0.087889,1,1,0
4076,102,-0.550834,-0.047271,-0.051819,0.046860,1,1,0
4060,102,-0.513753,-0.010217,-0.088468,-0.007878,1,1,0
4050,102,-0.639908,0.030895,0.030007,-0.041054,1,1,0
4055,102,-0.517241,-0.004137,0.068302,-0.033391,1,1,0
4048,102,-0.589090,0.036791,0.081367,-0.037860,1,1,0
4062,102,-0.534219,0.037500,0.084276,0.056591,1,1,0
4063,102,-0.471316,0.013398,0.009301,0.028402,1,1,0
4052,102,-0.571797,0.044417,0.035125,-0.047034,1,1,0
4044,102,-0.533590,0.033752,0.004675,-0.023878,1,1,0
4058,102,-0.556655,0.086938,0.010387,-0.002271,1,1,0
4045,102,-0.561313,-0.041909,0.087815,0.025104,1,1,0
4040,102,-0.528574,-0.007558,0.121615,-0.086650,1,1,0
4068,102,-0.503097,0.015417,-0.068439,0.001520,1,1,0
4075,102,-0.591872,0.193116,-0.128623,-0.075979,0,1,0
4072,102,-0.469484,0.000182,-0.068228,-0.033653,1,1,0
4043,102,-0.486489,-0.012502,0.092559,-0.039566,1,1,0
4041,102,-0.557558,-0.007726,0.102867,-0.080703,1,1,0
4070,102,-0.568063,-0.067450,-0.077688,-0.159229,1,1,0
4098,103,-0.622184,-0.003808,0.055944,-0.024854,1,1,0
4094,103,-0.530064,-0.031731,0.133039,-0.021698,1,1,0
4087,103,-0.539734,0.063887,0.005061,-0.087006,1,1,0
4117,103,-0.542476,0.016070,-0.108164,-0.047251,1,1,0
4111,103,-0.540609,0.025824,-0.064484,-0.084436,1,1,0
4093,103,-0.673904,-0.020232,0.094688,-0.018022,1,0,0
4092,103,-0.539583,0.153391,0.136597,-0.064403,1,1,0
4080,103,-0.537596,0.058322,-0.005957,0.026708,1,1,0
4090,103,-0.567508,0.073496,0.123875,-0.069650,1,1,0
4103,103,-0.525819,0.019639,-0.125385,-0.094065,1,1,0
4116,103,-0.475592,0.058664,-0.156077,-0.166081,1,1,0
4119,103,-0.454140,-0.067257,-0.172530,0.044220,1,1,0
4106,103,-0.437396,-0.015649,-0.029797,0.091163,1,1,0
4108,103,-0.637251,0.024263,-0.095531,0.046702,1,1,0
4118,103,-0.437489,-0.063701,-0.115627,-0.076044,0,1,0
4109,103,-0.456784,0.002900,-0.073332,0.018255,1,1,0
4083,103,-0.559356,0.060771,0.071851,-0.021261,1,1,0
4096,103,-0.623582,0.049501,-0.007549,-0.024597,1,1,0
4107,103,-0.456749,0.027965,-0.154008,0.038985,1,1,0
4115,103,-0.599030,0.050612,-0.153999,-0.040433,1,1,0
4082,103,-0.512704,0.010543,0.108478,0.046507,1,1,0
4091,103,-0.528588,-0.024301,0.163463,-0.080464,1,1,0
4095,103,-0.564016,0.093124,0.052673,-0.126269,1,1,0
4112,103,-0.517092,0.002579,-0.030533,-0.008821,1,1,0
4113,103,-0.574205,-0.014734,-0.109345,-0.027706,1,1,0
4101,103,-0.446330,0.159246,-0.072085,-0.049637,0,1,0
4088,103,-0.519641,-0.048015,0.058595,-0.010865,1,1,0
4089,103,-0.549968,0.051156,0.066679,0.047711,1,1,0
4110,103,-0.488126,0.076522,-0.080649,-0.034091,1,1,0
4085,103,-0.610450,0.006970,0.064571,0.006476,1,1,0
4099,103,-0.538181,0.015435,0.182570,-0.051242,1,1,0
4086,103,-0.561970,0.060728,-0.015654,-0.024373,1,1,0
4084,103,-0.559689,0.038945,0.050034,-0.098187,1,1,0
4102,103,-0.550437,-0.020324,-0.095928,0.023309,1,1,0
4114,103,-0.537756,0.023714,-0.086840,0.003863,1,1,0
4104,103,-0.462324,0.058786,-0.077656,-0.069670,1,1,0
4081,103,-0.548513,0.042090,0.079967,-0.016142,1,1,0
4100,103,-0.458773,0.063584,-0.152195,0.022801,1,1,0
4097,103,-0.513535,0.019174,0.148640,-0.111808,1,1,0
4105,103,-0.580638,0.041353,-0.131479,0.039807,1,1,0
4156,104,-0.540378,0.043243,-0.185083,-0.098648,1,1,0
4120,104,-0.557343,0.022697,0.035391,0.051314,1,1,0
4127,104,-0.521658,-0.010465,0.007973,-0.107047,1,1,0
4124,104,-0.544703,0.067847,0.069820,-0.095075,1,1,0
4158,104,-0.542574,0.010410,-0.103963,0.037266,1,1,0
4148,104,-0.542817,0.038308,-0.165484,-0.050404,1,1,0
4126,104,-0.518394,0.049531,0.047006,-0.030531,1,1,0
4130,104,-0.494876,0.095394,0.181924,-0.017768,1,1,0
4146,104,-0.480935,0.041606,0.014728,-0.029713,1,1,0
4136,104,-0.530079,0.047590,-0.014162,-0.027718,1,1,0
4135,104,-0.628385,0.027173,0.061157,0.010685,1,1,0
4157,104,-0.517149,0.018065,-0.051201,-0.076087,1,1,0
4145,104,-0.580918,0.100645,-0.133254,-0.034278,1,1,0
4123,104,-0.476172,0.051924,0.097909,0.025064,1,1,0
4134,104,-0.576288,0.086730,0.081317,-0.115974,1,1,0
4128,104,-0.620836,0.024676,0.063956,-0.090084,1,1,0
4155,104,-0.494535,-0.005702,-0.150404,0.025766,1,1,0
4133,104,-0.581258,0.140840,0.075986,-0.007724,1,1,0
4142,104,-0.507289,0.074816,-0.226933,0.095615,1,1,0
4149,104,-0.489642,0.015948,-0.081330,0.002897,1,1,0
4140,104,-0.430362,-0.025695,-0.049522,-0.014617,1,1,0
4139,104,-0.512347,-0.015172,0.072758,-0.000098,1,1,0
4132,104,-0.515047,0.010702,0.107649,0.007743,1,1,0
4125,104,-0.570825,0.030891,0.084062,-0.057347,1,1,0
4144,104,-0.470729,0.059166,-0.235735,-0.075860,1,1,0
4138,104,-0.499471,0.064294,0.029834,-0.040179,1,1,0
4121,104,-0.520903,0.086618,0.078409,0.016835,1,1,0
4150,104,-0.522409,0.035386,-0.254717,0.002377,1,1,0
4159,104,-0.442522,0.022160,-0.151815,-0.042844,1,1,0
4147,104,-0.521313,0.039160,-0.132436,-0.016588,1,1,0
4152,104,-0.545305,0.013509,-0.088669,-0.074685,1,1,0
4153,104,-0.492895,-0.047151,-0.176746,-0.044658,1,1,0
4137,104,-0.518591,0.103176,0.022687,-0.090094,1,1,0
4143,104,-0.681474,-0.010963,-0.062053,0.006220,1,1,0
4154,104,-0.531082,-0.015025,-0.132390,-0.038467,1,1,0
4122,104,-0.572907,0.125052,0.173700,-0.051485,1,1,0
4151,104,-0.496684,0.087354,0.020522,0.003639,1,1,0
4141,104,-0.492574,-0.006900,-0.088054,-0.062675,1,1,0
4131,104,-0.527963,0.085145,0.038233,0.033183,1,1,0
4129,104,-0.550454,0.037433,0.050006,-0.064005,1,1,0
4195,105,-0.488493,0.036969,-0.211396,-0.007785,1,1,0
4190,105,-0.527805,-0.043827,-0.081230,-0.026767,1,1,0
4163,105,-0.474207,0.051201,0.095370,0.019657,1,1,0
4165,105,-0.574390,0.030124,-0.000993,-0.097847,1,1,0
4188,105,-0.479696,-0.043961,-0.032264,-0.036179,1,1,0
4164,105,-0.544885,0.046800,0.004762,-0.023565,1,1,0
4186,105,-0.544303,0.020904,-0.071723,-0.028024,1,1,0
4175,105,-0.530390,0.049270,0.072093,-0.059002,1,1,0
4193,105,-0.458956,0.007716,-0.128316,-0.070001,1,1,0
4176,105,-0.530267,-0.010122,0.062377,-0.022322,1,1,0
4187,105,-0.540264,-0.026817,-0.139680,-0.034527,1,1,0
4167,105,-0.551269,0.075538,0.068073,-0.001679,1,1,0
4168,105,-0.494095,0.016545,0.088163,-0.025208,1,1,0
4183,105,-0.494518,0.036675,-0.153110,-0.015777,1,1,0
4189,105,-0.587259,0.035686,-0.234215,-0.058284,1,1,0
4198,105,-0.506047,-0.043482,0.056012,-0.127155,1,1,0
4179,105,-0.560392,0.062072,0.045217,0.020323,1,1,0
4173,105,-0.578098,0.055506,0.067028,-0.032802,1,1,0
4194,105,-0.438965,0.038392,-0.027923,-0.039264,1,1,0
4174,105,-0.535254,0.061830,0.091819,-0.058878,1,1,0
4197,105,-0.609499,0.114423,-0.007942,0.020766,1,1,0
4192,105,-0.526117,0.048045,-0.093504,-0.023300,1,1,0
4178,105,-0.546586,0.076961,0.143525,-0.014120,1,1,0
4170,105,-0.523073,-0.026078,0.072561,-0.027838,1,1,0
4171,105,-0.603066,0.040814,0.089016,-0.063912,1,1,0
4185,105,-0.451052,0.002227,-0.172239,-0.029824,1,1,0
4166,105,-0.508446,0.045985,-0.063166,0.014648,1,1,0
4169,105,-0.563520,0.083147,0.121315,0.030951,1,1,0
4196,105,-0.520592,0.056101,-0.145696,0.009549,1,1,0
4180,105,-0.482928,0.084259,-0.071708,-0.012749,1,1,0
4184,105,-0.506101,0.081206,-0.129177,-0.051117,1,1,0
4181,105,-0.581062,-0.024919,-0.043173,0.040233,1,1,0
4199,105,-0.565390,0.016843,-0.052250,-0.083046,1,1,0
4161,105,-0.585340,0.149892,0.079498,-0.007753,1,0,0
4162,105,-0.486416,0.016323,0.064387,0.001659,1,1,0
4191,105,-0.537672,0.063022,-0.167659,-0.050346,1,1,0
4177,105,-0.465238,-0.023116,0.071574,-0.026387,1,1,0
4172,105,-0.633295,0.026817,0.066554,-0.095217,1,1,0
4182,105,-0.455469,-0.056104,-0.117531,-0.029347,1,1,0
4160,105,-0.512544,0.000105,0.094806,0.034698,1,1,0
4234,106,-0.486269,-0.068299,-0.057011,0.054783,1,1,0
4224,106,-0.550810,0.030656,-0.169421,-0.038300,1,1,0
4228,106,-0.573896,0.019417,-0.005896,-0.091705,1,1,0
4214,106,-0.579100,0.062275,0.130792,-0.097080,1,1,0
4202,106,-0.497989,0.127649,0.130229,-0.070333,1,1,0
4207,106,-0.629455,0.062709,0.106433,-0.090520,1,1,0
4219,106,-0.612326,0.008324,0.039517,-0.040240,1,1,0
4213,106,-0.573479,0.140584,0.106375,-0.089218,1,1,0
4217,106,-0.517907,0.046507,0.065664,0.004524,1,1,0
4236,106,-0.477260,0.016411,-0.113077,-0.084488,1,1,0
4231,106,-0.475108,0.012121,-0.137555,-0.000903,1,1,0
4218,106,-0.604819,0.136212,0.021118,0.030667,1,1,0
4225,106,-0.520306,0.057537,-0.085510,0.026225,1,1,0
4206,106,-0.600200,0.101033,0.038454,0.036928,1,1,0
4201,106,-0.526461,0.153235,0.090779,-0.064061,1,1,0
4204,106,-0.576630,0.096173,0.051476,-0.034538,1,1,0
4226,106,-0.555900,0.041159,-0.149804,-0.074508,1,1,0
4216,106,-0.566375,0.143751,0.049433,-0.059915,1,1,0
4210,106,-0.586054,0.098939,0.127749,-0.087673,1,1,0
4235,106,-0.500484,-0.093154,-0.187044,-0.101963,1,1,0
4223,106,-0.523712,0.028301,-0.134462,-0.041003,1,1,0
4227,106,-0.607657,0.000811,-0.074266,-0.090345,1,1,0
4215,106,-0.539389,-0.012166,0.046767,-0.061014,1,1,0
4221,106,-0.532125,0.086140,-0.081390,-0.051336,1,1,0
4229,106,-0.518332,-0.031401,-0.165216,0.034565,1,1,0
4220,106,-0.541729,0.037958,-0.230384,-0.038136,1,1,0
4211,106,-0.628534,-0.020931,0.137562,-0.017648,1,1,0
4239,106,-0.481785,-0.059663,-0.088229,0.078698,1,1,0
4230,106,-0.545854,0.091088,-0.091145,0.008857,1,1,0
4200,106,-0.517831,-0.093965,-0.000156,-0.003051,1,1,0
4222,106,-0.592175,0.055277,-0.160795,0.034534,1,1,0
4232,106,-0.448134,-0.059349,-0.005330,-0.031550,1,1,0
4233,106,-0.510983,0.141931,-0.140238,-0.020482,1,1,0
4237,106,-0.531470,0.075113,-0.144807,-0.119699,1,1,0
4203,106,-0.484359,0.072524,0.080532,-0.023625,1,1,0
4209,106,-0.521239,0.003760,0.025158,-0.064411,1,1,0
4238,106,-0.496636,0.096451,-0.210494,-0.077417,1,1,0
4208,106,-0.573933,0.012141,0.033874,-0.129917,1,1,0
4212,106,-0.644931,-0.009049,0.041408,0.050361,1,1,0
4205,106,-0.530767,0.043648,0.094451,-0.030189,1,1,0
4260,107,-0.472521,-0.004830,0.003089,-0.029545,1,1,0
4277,107,-0.485349,0.047625,-0.055849,-0.024906,1,1,0
4259,107,-0.573583,0.081872,0.015757,-0.102403,1,1,0
4267,107,-0.444804,0.053329,-0.121612,0.006676,1,1,0
4257,107,-0.486971,0.145032,0.058879,-0.076458,1,1,0
4254,107,-0.526577,0.076711,0.077036,-0.046166,1,1,0
4261,107,-0.581417,0.019381,-0.089958,-0.015944,1,1,0
4275,107,-0.501267,0.063997,-0.120705,0.024293,1,1,0
4249,107,-0.543027,-0.007949,0.086408,0.004232,1,1,0
4240,107,-0.520287,0.000738,0.085867,-0.095610,1,1,0
4272,107,-0.490604,0.036597,-0.053880,-0.000540,1,1,0
4276,107,-0.467393,0.016790,-0.106827,-0.002773,1,1,0
4258,107,-0.658264,0.050797,0.117628,-0.087914,1,1,0
4268,107,-0.476994,0.087439,-0.097809,0.003614,1,1,0
4248,107,-0.603529,-0.000797,0.016030,-0.098185,1,1,0
4269,107,-0.491817,0.043652,-0.071572,-0.032153,1,1,0
4274,107,-0.583389,0.060672,-0.143639,-0.038982,1,1,0
4278,107,-0.465212,-0.022262,0.006102,-0.071068,1,1,0
4270,107,-0.461099,0.058956,-0.110425,-0.027443,1,1,0
4245,107,-0.452834,0.044110,0.021085,0.035227,1,1,0
4250,107,-0.520812,-0.015631,-0.002349,-0.000282,1,1,0
4242,107,-0.533700,0.014855,0.122129,-0.058711,1,1,0
4252,107,-0.482268,0.098339,0.085321,-0.016376,1,1,0
4264,107,-0.590389,0.089195,-0.039010,0.002303,1,1,0
4256,107,-0.523828,0.020667,0.011101,-0.010408,1,1,0
4263,107,-0.591596,-0.026305,-0.096286,0.007696,1,1,0
4246,107,-0.550610,0.065749,0.041298,-0.049561,1,1,0
4251,107,-0.618673,-0.006136,0.043809,0.021519,1,1,0
4247,107,-0.533943,0.077756,0.029529,-0.020525,1,1,0
4271,107,-0.593016,0.052857,-0.092816,-0.071873,1,1,0
4244,107,-0.517062,0.067765,0.031439,-0.043247,1,1,0
4262,107,-0.509973,-0.059027,-0.117896,0.081703,1,1,0
4265,107,-0.509908,0.030489,-0.087052,0.032885,1,1,0
4243,107,-0.559590,0.025306,0.063699,-0.067674,1,1,0
4273,107,-0.601922,0.075084,-0.044203,0.018753,1,1,0
4266,107,-0.576100,0.091601,-0.102926,-0.032085,1,1,0
4241,107,-0.452338,0.046441,0.066075,-0.062660,1,1,0
4255,107,-0.606000,0.071247,0.110469,-0.031899,1,1,0
4279,107,-0.502960,0.115753,-0.108106,-0.052610,1,1,0
4253,107,-0.465259,-0.054015,-0.049090,-0.035530,1,1,0
4283,108,-0.564598,0.003077,0.017691,0.025404,1,1,0
4314,108,-0.539032,0.039450,-0.050175,-0.006157,1,1,0
4289,108,-0.499665,-0.038326,0.028837,-0.010526,1,1,0
4307,108,-0.514679,-0.102894,-0.097141,-0.048942,0,1,0
4287,108,-0.587088,0.148702,0.076313,0.005283,1,1,0
4291,108,-0.587729,0.069505,0.084092,0.036394,1,1,0
4292,108,-0.525784,0.037372,0.097247,0.077086,1,1,0
4301,108,-0.536416,0.024761,-0.084868,0.035454,1,1,0
4318,108,-0.424774,0.097681,-0.166829,-0.057958,1,1,0
4282,108,-0.591128,-0.024463,0.029971,0.009916,1,1,0
4288,108,-0.645906,0.108432,0.059048,-0.085808,1,0,0
4302,108,-0.502313,0.100871,-0.071016,0.029549,1,1,0
4295,108,-0.568911,0.028915,0.044340,-0.113223,1,1,0
4297,108,-0.564457,0.058899,0.163908,0.002543,1,1,0
4299,108,-0.528620,0.017125,0.127387,-0.008455,1,1,0
4306,108,-0.621272,0.106324,-0.088489,-0.000611,1,1,0
4280,108,-0.541828,0.095557,0.128898,-0.027022,1,1,0
4312,108,-0.542465,0.051438,-0.064112,-0.049439,1,1,0
4303,108,-0.579514,0.039756,-0.118023,-0.099154,1,1,0
4305,108,-0.557338,0.058402,-0.148789,-0.107850,1,1,0
4284,108,-0.584915,0.012033,0.045654,-0.077657,1,1,0
4319,108,-0.522334,0.045681,-0.146714,-0.140518,1,1,0
4309,108,-0.614912,0.008033,-0.165106,-0.033496,1,1,0
4313,108,-0.442229,-0.006475,-0.241036,0.001914,1,1,0
4298,108,-0.498147,0.092174,0.096702,-0.108718,1,1,0
4308,108,-0.466010,-0.031326,-0.082094,-0.027959,1,1,0
4296,108,-0.602647,0.107248,0.034316,-0.023082,1,1,0
4317,108,-0.515205,0.145279,-0.192545,-0.081909,1,1,0
4311,108,-0.492841,-0.003214,-0.061632,0.010801,1,1,0
4300,108,-0.527716,0.057439,-0.115377,-0.013009,1,1,0
4290,108,-0.460446,0.016707,0.030792,-0.113345,1,1,0
4294,108,-0.498197,0.045895,-0.022324,-0.024794,1,1,0
4304,108,-0.477116,0.065655,-0.068510,-0.005775,1,1,0
4293,108,-0.534693,-0.042380,0.011619,-0.018870,1,1,0
4281,108,-0.539488,0.098934,0.065433,-0.074409,1,1,0
4310,108,-0.479732,-0.003637,-0.085039,-0.002110,1,1,0
4316,108,-0.555478,-0.078478,-0.194408,-0.108497,1,1,0
4315,108,-0.600829,0.087800,-0.112888,0.013618,1,1,0
4285,108,-0.570167,0.108399,0.053146,-0.012215,1,1,0
4286,108,-0.538424,0.084289,0.044715,-0.057372,1,1,0
4347,109,-0.560555,0.041877,-0.224687,0.065833,1,1,0
4330,109,-0.548396,0.065860,-0.013670,-0.056615,1,1,0
4354,109,-0.413927,-0.040256,-0.076820,0.018804,0,1,0
4323,109,-0.519360,0.034183,0.097937,0.054621,1,1,0
4353,109,-0.593085,0.021529,-0.195384,-0.108229,1,1,0
4352,109,-0.548033,0.012899,-0.148055,-0.038063,1,1,0
4336,109,-0.557670,0.159855,0.042829,-0.009790,1,1,0
4355,109,-0.524250,-0.017702,-0.082471,-0.032409,1,1,0
4339,109,-0.609666,0.129102,0.031547,-0.068939,1,1,0
4329,109,-0.463704,0.017495,0.077888,-0.074234,1,1,0
4337,109,-0.493891,0.030899,0.124278,-0.034052,1,1,0
4322,109,-0.514337,0.104834,0.085910,0.005386,1,1,0
4356,109,-0.450858,0.045313,-0.083080,-0.069140,1,1,0
4340,109,-0.541380,-0.046213,-0.180485,-0.044463,1,1,0
4327,109,-0.536784,0.046215,-0.016135,0.016714,1,1,0
4348,109,-0.493556,0.067030,-0.180338,0.064960,1,1,0
4333,109,-0.498104,0.095720,0.055245,-0.007805,1,1,0
4357,109,-0.499785,0.033277,-0.088700,-0.012633,1,1,0
4344,109,-0.434454,0.029369,-0.091958,0.031175,1,1,0
4350,109,-0.565364,-0.025747,-0.109646,-0.050068,1,1,0
4320,109,-0.497575,0.013499,0.026123,-0.038988,1,1,0
4325,109,-0.568457,-0.008555,0.127056,-0.003353,1,1,0
4346,109,-0.590760,0.080723,-0.170534,-0.018721,1,1,0
4328,109,-0.500138,0.047688,0.064824,0.001773,1,1,0
4338,109,-0.561915,0.117596,0.071140,0.010252,1,1,0
4326,109,-0.488051,0.039464,0.070651,-0.017381,1,1,0
4334,109,-0.578132,-0.004704,0.100265,-0.057659,1,1,0
4342,109,-0.510999,0.033322,-0.049557,-0.069096,1,1,0
4324,109,-0.499865,0.085020,-0.032053,-0.057538,1,1,0
4331,109,-0.549555,0.057277,0.068435,0.032381,1,1,0
4343,109,-0.572587,-0.010370,-0.151783,-0.022460,1,1,0
4351,109,-0.472298,0.042226,-0.077197,0.027016,1,1,0
4349,109,-0.394242,-0.051509,-0.023183,-0.051976,0,1,0
4358,109,-0.490874,-0.059332,-0.085041,0.055010,1,1,0
4359,109,-0.439843,-0.060994,-0.153109,-0.057723,0,1,0
4341,109,-0.503695,-0.082558,-0.027538,-0.079699,1,1,0
4335,109,-0.548018,0.045893,0.168893,-0.035213,1,1,0
4332,109,-0.518916,0.014447,0.038570,-0.012383,1,1,0
4321,109,-0.523703,0.039767,-0.016299,-0.000506,1,1,0
4345,109,-0.547737,0.054729,-0.064983,0.034792,1,1,0
4382,110,-0.484727,-0.004456,-0.088427,-0.017830,1,1,0
4386,110,-0.492441,0.010095,-0.165064,-0.007709,1,1,0
4373,110,-0.556232,0.034624,0.038255,-0.002995,1,1,0
4394,110,-0.588641,0.093034,-0.201815,-0.012280,1,1,0
4360,110,-0.603276,0.000294,-0.000918,-0.119100,1,1,0
4385,110,-0.530040,0.028584,-0.182917,-0.067178,1,1,0
4363,110,-0.382454,-0.001604,0.060463,-0.022872,1,1,0
4390,110,-0.545631,0.097589,-0.109111,0.072228,1,1,0
4379,110,-0.532592,0.002347,0.045928,-0.015139,1,1,0
4391,110,-0.513888,0.023925,-0.055436,0.024095,1,1,0
4381,110,-0.481035,-0.007641,-0.082780,0.027972,1,1,0
4383,110,-0.494116,0.025507,-0.144042,-0.060956,1,1,0
4368,110,-0.501367,-0.011256,0.068941,0.104431,1,1,0
4366,110,-0.625091,0.035264,0.092165,-0.023205,1,1,0
4365,110,-0.574373,0.009733,0.043514,-0.061946,1,1,0
4378,110,-0.572021,0.068516,0.160195,-0.031169,1,1,0
4374,110,-0.602178,0.084430,-0.048899,-0.073825,1,1,0
4384,110,-0.406074,-0.020060,-0.098483,-0.067044,0,1,0
4395,110,-0.444565,0.014810,-0.124770,0.021501,1,1,0
4399,110,-0.462809,-0.004507,-0.127150,-0.049022,1,1,0
4371,110,-0.534712,0.097029,0.088629,0.046498,1,1,0
4372,110,-0.486450,0.027574,0.114848,-0.109879,1,1,0
4370,110,-0.543500,0.077887,0.181058,-0.002793,1,1,0
4361,110,-0.600591,-0.021155,0.094582,-0.102816,1,1,0
4375,110,-0.495014,0.058329,0.024935,-0.030263,1,1,0
4364,110,-0.584775,0.039105,0.054349,-0.030137,1,1,0
4376,110,-0.615806,0.053088,0.106218,-0.018898,1,1,0
4380,110,-0.495767,-0.044322,-0.037318,-0.044449,1,1,0
4367,110,-0.491371,0.121472,0.128746,-0.020796,1,1,0
4362,110,-0.482349,0.105288,0.065845,-0.076425,1,1,0
4389,110,-0.614817,0.017112,-0.107328,-0.040338,1,1,0
4369,110,-0.580324,0.103368,0.095140,-0.065539,1,1,0
4397,110,-0.499849,0.068918,-0.044302,0.058738,1,1,0
4388,110,-0.504436,0.034309,-0.060101,-0.050179,1,1,0
4396,110,-0.543745,-0.079259,-0.090892,0.016892,1,1,0
4377,110,-0.605165,0.030512,0.188676,-0.011746,1,1,0
4393,110,-0.545072,0.073716,-0.152226,-0.027036,1,1,0
4392,110,-0.466591,0.013206,-0.150635,-0.004474,1,1,0
4387,110,-0.509317,0.002467,-0.149611,-0.015350,1,1,0
4398,110,-0.591734,0.066699,-0.078157,0.005199,1,1,0
4407,111,-0.594817,0.064473,0.054505,0.009906,1,1,0
4401,111,-0.549441,0.130219,0.097702,-0.006071,1,1,0
4410,111,-0.516800,-0.011220,0.037566,-0.009787,1,1,0
4423,111,-0.535274,-0.031720,-0.173424,-0.063084,1,1,0
4402,111,-0.574779,0.029524,0.099493,0.039785,1,1,0
4433,111,-0.467883,0.037594,-0.167831,0.031891,1,1,0
4413,111,-0.633051,-0.001668,0.090625,-0.036841,1,1,0
4406,111,-0.643025,0.003697,0.155718,-0.044551,1,1,0
4416,111,-0.580257,0.026866,0.048126,-0.038676,1,1,0
4424,111,-0.528750,-0.005635,-0.127125,-0.081854,1,1,0
4420,111,-0.549212,0.059749,-0.080026,-0.143615,1,1,0
4439,111,-0.549163,0.066505,-0.055077,-0.050750,1,1,0
4421,111,-0.517780,0.126561,-0.089237,-0.071633,1,1,0
4418,111,-0.570741,0.038389,0.118592,-0.062243,1,1,0
4437,111,-0.479195,-0.027148,-0.188097,-0.115599,1,1,0
4411,111,-0.543700,0.084948,0.032697,-0.094939,1,1,0
4408,111,-0.691962,0.074299,0.024598,-0.032732,1,0,0
4422,111,-0.484472,-0.004275,-0.226055,0.032772,1,1,0
4432,111,-0.515006,0.032033,-0.095823,-0.065478,1,1,0
4431,111,-0.552741,0.122406,-0.122805,-0.141082,1,1,0
4438,111,-0.544853,0.022860,-0.068590,-0.026649,1,1,0
4405,111,-0.515471,-0.012629,0.009034,0.059901,1,1,0
4414,111,-0.588306,0.059016,-0.028911,0.007041,1,1,0
4409,111,-0.634995,0.059224,0.108351,0.013364,1,1,0
4428,111,-0.536278,0.163389,-0.197158,0.056455,1,1,0
4400,111,-0.534235,0.039424,0.109087,0.008221,1,1,0
4426,111,-0.411134,-0.017318,-0.075162,-0.040499,0,1,0
4417,111,-0.631613,0.023406,0.142102,-0.032070,1,1,0
4434,111,-0.541531,0.063227,-0.117592,-0.042430,1,1,0
4427,111,-0.535194,0.028350,-0.054087,-0.079409,1,1,0
4430,111,-0.576855,0.059167,-0.216462,-0.061034,1,1,0
4412,111,-0.664619,-0.032722,0.052652,-0.074836,1,0,0
4425,111,-0.568695,0.021941,-0.082401,-0.026117,1,1,0
4436,111,-0.521730,0.038439,-0.217572,0.028744,1,1,0
4403,111,-0.528247,0.019356,0.073009,-0.019153,1,1,0
4404,111,-0.593962,0.009363,0.078434,-0.045064,1,1,0
4415,111,-0.549845,-0.027551,0.047622,0.045846,1,1,0
4435,111,-0.683511,0.060332,-0.135199,0.036398,1,1,0
4419,111,-0.601591,0.028164,0.061431,0.047813,1,1,0
4429,111,-0.461478,-0.007749,-0.136706,-0.022864,1,1,0
4479,112,-0.528594,-0.048424,-0.185930,-0.091255,1,1,0
4444,112,-0.542423,-0.077344,0.109118,-0.011869,1,1,0
4474,112,-0.491994,0.034335,-0.188379,-0.037277,1,1,0
4468,112,-0.515629,0.014241,-0.190658,-0.024453,1,1,0
4447,112,-0.559430,0.071788,0.038830,0.070345,1,1,0
4471,112,-0.542727,-0.020342,-0.036938,-0.065529,1,1,0
4469,112,-0.486698,0.050420,-0.073897,0.017034,1,1,0
4466,112,-0.523294,0.084262,-0.184197,-0.034065,1,1,0
4463,112,-0.457790,-0.001372,-0.216039,-0.019524,1,1,0
4450,112,-0.594443,0.072925,0.048769,-0.009791,1,1,0
4455,112,-0.542164,-0.024505,0.096701,0.024843,1,1,0
4451,112,-0.656900,0.011766,0.067541,-0.003102,1,1,0
4456,112,-0.585548,0.066955,0.142726,0.021528,1,1,0
4458,112,-0.485893,0.040033,0.040602,-0.071181,1,1,0
4446,112,-0.587967,0.124431,0.085730,0.019160,1,1,0
4467,112,-0.512352,0.043420,-0.122215,0.115668,1,1,0
4472,112,-0.502585,0.042293,-0.137658,-0.074536,1,1,0
4448,112,-0.593609,0.090376,-0.036471,0.032757,1,1,0
4464,112,-0.481449,-0.059609,-0.160734,0.003079,1,1,0
4443,112,-0.529654,-0.011686,0.116756,-0.015204,1,1,0
4453,112,-0.624555,0.032167,0.044444,0.026138,1,1,0
4452,112,-0.511941,0.131250,0.117272,0.075138,1,1,0
4460,112,-0.596986,0.068968,-0.142189,-0.122487,1,1,0
4441,112,-0.561989,0.104061,-0.000576,-0.075456,1,1,0
4473,112,-0.580493,-0.057597,-0.158980,-0.098532,1,1,0
4461,112,-0.509928,-0.008795,-0.035552,0.017586,1,1,0
4457,112,-0.601446,-0.005039,0.020121,-0.088108,1,1,0
4445,112,-0.541784,0.042459,-0.074750,-0.077977,1,1,0
4476,112,-0.467286,0.008154,-0.053100,-0.095836,1,1,0
4478,112,-0.579801,0.029984,-0.090777,0.006999,1,1,0
4442,112,-0.463112,0.047076,0.035833,-0.022061,1,1,0
4440,112,-0.632405,0.135524,0.121698,-0.065268,1,0,0
4449,112,-0.513201,0.024215,0.151947,-0.073812,1,1,0
4475,112,-0.564551,0.014293,-0.148977,-0.105436,1,1,0
4465,112,-0.432262,0.054168,-0.197662,0.010872,1,1,0
4462,112,-0.502305,0.075738,-0.162283,-0.039096,1,1,0
4477,112,-0.565331,0.048186,-0.051723,-0.009069,1,1,0
4470,112,-0.451779,-0.049786,-0.037607,-0.039055,1,1,0
4454,112,-0.616230,0.076442,0.114536,-0.015812,1,1,0
4459,112,-0.624405,0.026965,0.006046,-0.033363,1,1,0
4508,113,-0.474578,-0.098474,0.013098,0.137712,0,1,0
4492,113,-0.502785,0.021732,0.031734,-0.096437,1,1,0
4495,113,-0.572401,0.069189,-0.038356,-0.078587,1,1,0
4507,113,-0.529753,0.117919,-0.018861,0.103694,1,1,0
4489,113,-0.626708,0.052991,0.077022,-0.001594,1,1,0
4518,113,-0.555965,-0.154240,-0.104674,0.141790,0,1,0
4498,113,-0.609280,0.039578,-0.065420,-0.043715,1,1,0
4488,113,-0.518089,0.075325,0.075675,-0.001700,1,1,0
4499,113,-0.543474,0.057302,0.060545,-0.098978,1,1,0
4515,113,-0.485712,0.031971,-0.083727,0.144310,1,1,0
4482,113,-0.512837,0.118995,0.092260,-0.019936,1,1,0
4505,113,-0.489072,0.037816,-0.099670,0.082668,1,1,0
4497,113,-0.436709,0.050157,0.021291,-0.044609,1,1,0
4517,113,-0.507690,0.087404,-0.051710,0.114668,1,1,0
4519,113,-0.583786,0.016700,-0.045537,0.072793,1,1,0
4506,113,-0.487353,-0.042109,-0.119588,0.067242,1,1,0
4484,113,-0.488927,0.062712,0.070186,-0.040514,1,1,0
4493,113,-0.515198,0.078639,0.069308,0.022140,1,1,0
4513,113,-0.527484,-0.027565,-0.064898,-0.020841,1,1,0
4483,113,-0.544026,0.091104,0.062884,-0.021817,1,1,0
4487,113,-0.569418,0.018699,0.082591,-0.102049,1,1,0
4512,113,-0.476070,0.025482,-0.153421,0.038005,1,1,0
4481,113,-0.594019,0.105181,0.024170,-0.011181,1,1,0
4502,113,-0.466123,-0.041649,-0.104503,0.046626,1,1,0
4501,113,-0.518214,0.028597,-0.077496,0.047855,1,1,0
4510,113,-0.612858,0.031151,0.006467,0.118081,1,1,0
4503,113,-0.580487,0.053183,-0.109128,0.060174,1,1,0
4511,113,-0.465162,0.150528,-0.107039,0.106917,1,1,0
4514,113,-0.503534,0.004574,-0.078855,0.095446,1,1,0
4504,113,-0.493260,0.057916,-0.120955,0.152034,1,1,0
4490,113,-0.503655,0.084424,0.003796,0.006432,1,1,0
4486,113,-0.531386,0.017060,0.109979,-0.012233,1,1,0
4509,113,-0.444584,0.001176,-0.106855,0.071522,1,1,0
4491,113,-0.492925,0.112335,0.060853,-0.079552,1,1,0
4500,113,-0.483733,-0.070080,-0.040874,0.145926,1,1,0
4494,113,-0.596645,-0.015441,0.053991,0.004057,1,1,0
4480,113,-0.529988,-0.056648,0.111500,-0.038868,1,1,0
4485,113,-0.581988,0.142976,0.053974,-0.056109,1,1,0
4496,113,-0.563882,0.067980,0.025722,-0.047449,1,1,0
4516,113,-0.530916,0.019254,-0.091812,0.134162,1,1,0
4547,114,-0.451324,0.028513,-0.057719,0.089559,1,1,0
4558,114,-0.494913,-0.019184,-0.041883,0.134967,1,1,0
4545,114,-0.577103,-0.021430,-0.112121,0.090451,1,1,0
4527,114,-0.439217,0.197368,0.080380,-0.058350,1,0,0
4531,114,-0.585786,0.033559,0.028121,-0.003618,1,1,0
4553,114,-0.454991,-0.022199,-0.094813,0.131573,1,1,0
4532,114,-0.537155,0.050253,0.088723,-0.095197,1,1,0
4530,114,-0.607986,0.062789,0.022326,-0.073126,1,1,0
4559,114,-0.454876,0.101952,-0.066033,0.138573,1,1,0
4539,114,-0.480883,0.063459,0.057554,-0.122994,1,1,0
4533,114,-0.476073,0.074064,0.057929,0.005844,1,1,0
4521,114,-0.553455,0.024819,-0.012929,-0.111209,1,1,0
4524,114,-0.559536,0.063069,0.061715,-0.007881,1,1,0
4522,114,-0.500046,0.008604,0.006102,-0.027108,1,1,0
4542,114,-0.467170,0.053856,-0.003056,0.095102,1,1,0
4549,114,-0.507438,0.022721,0.048207,0.111114,1,1,0
4536,114,-0.602237,0.026824,0.183332,-0.084860,1,1,0
4550,114,-0.550086,0.018020,-0.097063,0.050456,1,1,0
4548,114,-0.537507,0.032091,-0.111684,0.067256,1,1,0
4555,114,-0.572349,0.014397,-0.080809,0.067836,1,1,0
4556,114,-0.535354,0.062618,-0.079581,0.110790,1,1,0
4520,114,-0.539722,0.006945,0.036086,-0.068913,1,1,0
4535,114,-0.611562,0.036886,0.133937,-0.076564,1,1,0
4529,114,-0.544523,0.118524,0.008234,-0.051610,1,1,0
4537,114,-0.556479,-0.005834,0.087587,0.039353,1,1,0
4544,114,-0.561252,0.029386,-0.014074,0.005354,1,1,0
4541,114,-0.485362,-0.051621,-0.121935,0.154066,1,1,0
4551,114,-0.480735,0.060737,-0.059590,0.078671,1,1,0
4528,114,-0.565035,0.112673,0.032797,0.000968,1,1,0
4552,114,-0.478246,0.049009,-0.057880,0.091727,1,1,0
4526,114,-0.544566,0.053840,0.109299,0.011478,1,1,0
4557,114,-0.526957,-0.005384,-0.115009,0.005338,1,1,0
4543,114,-0.545235,0.037337,-0.037571,0.186288,1,1,0
4538,114,-0.491339,0.047535,-0.007615,0.014067,1,1,0
4540,114,-0.590742,-0.053047,-0.177888,0.136544,1,1,0
4525,114,-0.638703,0.021230,0.050756,-0.077013,1,1,0
4534,114,-0.604536,0.051435,0.096197,0.045247,1,1,0
4546,114,-0.617288,-0.016214,-0.063069,0.071835,1,1,0
4523,114,-0.634116,0.078288,0.136289,0.030333,1,1,0
4554,114,-0.452377,0.005691,-0.011161,0.209604,1,1,0
4599,115,-0.512949,0.064247,0.024393,0.185036,1,1,0
4574,115,-0.665085,0.005669,0.024129,0.026633,1,0,0
4576,115,-0.556546,0.097508,0.100333,-0.031571,1,1,0
4563,115,-0.579299,0.110276,0.097456,-0.028259,1,1,0
4595,115,-0.476835,0.064208,-0.069221,0.141596,1,1,0
4588,115,-0.498173,-0.020731,-0.120006,-0.040862,1,1,0
4584,115,-0.512792,0.007053,-0.049916,0.142364,1,1,0
4591,115,-0.532804,0.047979,-0.094753,0.088018,1,1,0
4562,115,-0.542951,0.028539,0.076238,-0.017249,1,1,0
4582,115,-0.470328,-0.163216,-0.105486,0.209270,0,1,0
4589,115,-0.463758,0.071196,-0.040577,0.186275,1,1,0
4597,115,-0.412826,0.061903,-0.118891,0.127461,1,1,0
4567,115,-0.559351,0.035895,0.098179,-0.037711,1,1,0
4565,115,-0.526137,-0.004464,0.093901,0.018328,1,1,0
4585,115,-0.624219,-0.073668,-0.146144,0.017543,1,1,0
4598,115,-0.559121,0.049521,-0.104802,0.156814,1,1,0
4594,115,-0.424817,0.041889,-0.163326,0.054202,1,1,0
4572,115,-0.537174,-0.073383,0.050579,0.020917,1,1,0
4579,115,-0.549843,0.022516,0.017941,-0.158477,1,1,0
4564,115,-0.621804,0.031008,0.098033,-0.037719,1,1,0
4586,115,-0.462285,-0.011790,-0.085111,0.182474,1,1,0
4566,115,-0.555730,0.025392,0.043059,-0.004005,1,1,0
4580,115,-0.485349,0.111629,-0.113667,0.145944,1,1,0
4575,115,-0.513954,0.039901,0.169655,-0.056710,1,1,0
4592,115,-0.512248,0.034871,-0.091326,0.022458,1,1,0
4596,115,-0.509020,0.086491,-0.067668,0.124734,1,1,0
4578,115,-0.639192,0.026669,0.073473,-0.032250,1,1,0
4570,115,-0.516280,0.088428,0.100900,-0.045105,1,1,0
4590,115,-0.456044,-0.003922,-0.107894,0.090451,1,1,0
4561,115,-0.478418,0.024833,0.110838,0.025168,1,1,0
4593,115,-0.521748,-0.030613,-0.156568,0.008705,1,1,0
4587,115,-0.496219,0.066597,-0.086851,0.090091,1,1,0
4571,115,-0.489034,0.114205,0.112829,0.042671,1,1,0
4569,115,-0.555277,0.080616,0.088144,-0.060497,1,1,0
4560,115,-0.579045,0.034899,0.046505,-0.015904,1,1,0
4581,115,-0.533537,-0.008942,-0.072999,0.109567,1,1,0
4568,115,-0.474792,0.134965,0.087094,-0.048277,1,1,0
4577,115,-0.603830,0.105829,0.106535,-0.037495,1,1,0
4583,115,-0.537681,0.051172,-0.108346,0.092245,1,1,0
4573,115,-0.544198,0.125413,0.139913,-0.055400,1,1,0
4633,116,-0.590252,-0.024238,-0.125513,0.049834,1,1,0
4613,116,-0.569307,0.010012,0.135693,-0.025137,1,1,0
4607,116,-0.513496,0.021236,0.135448,-0.064675,1,1,0
4610,116,-0.679871,0.118283,0.054319,-0.124704,1,0,0
4622,116,-0.496832,0.023671,-0.077025,0.124462,1,1,0
4630,116,-0.509012,0.005674,-0.097562,0.168664,1,1,0
4637,116,-0.533673,-0.036967,-0.128740,0.138451,1,1,0
4616,116,-0.554812,0.034078,-0.009168,-0.050326,1,1,0
4628,116,-0.406299,0.086060,-0.065573,0.137733,1,1,0
4608,116,-0.621123,0.018946,0.153848,-0.073097,1,1,0
4626,116,-0.517236,0.040685,-0.141229,0.088316,1,1,0
4611,116,-0.546927,0.122780,0.031615,-0.134265,1,1,0
4600,116,-0.550262,0.037988,0.059610,-0.042519,1,1,0
4619,116,-0.492319,0.058008,-0.020197,-0.023396,1,1,0
4612,116,-0.480852,0.052686,0.123633,-0.072951,1,1,0
4605,116,-0.669006,0.063097,0.040194,-0.105508,1,0,0
4629,116,-0.511147,-0.020979,-0.119457,0.191722,1,1,0
4631,116,-0.529456,0.022728,-0.077243,0.079665,1,1,0
4606,116,-0.521797,0.079421,0.105669,-0.012430,1,1,0
4639,116,-0.457930,0.040496,-0.046904,0.011002,1,1,0
4623,116,-0.526605,0.058465,-0.127895,0.077858,1,1,0
4618,116,-0.550159,-0.035498,0.045377,-0.090091,1,1,0
4601,116,-0.598156,0.019986,0.002221,-0.070631,1,1,0
4604,116,-0.536449,0.158803,0.087524,-0.046364,1,1,0
4624,116,-0.449742,0.056599,-0.046159,0.169739,1,1,0
4614,116,-0.557123,0.035023,0.016135,-0.111318,1,1,0
4615,116,-0.607019,0.109065,-0.003424,-0.007039,1,1,0
4620,116,-0.471871,0.028136,-0.095222,0.146211,1,1,0
4634,116,-0.596747,0.078636,-0.181232,0.087420,1,1,0
4627,116,-0.460989,0.106465,-0.157887,0.118003,1,1,0
4625,116,-0.558394,-0.034311,-0.202122,0.099373,1,1,0
4609,116,-0.532010,0.062468,0.095953,-0.052815,1,1,0
4635,116,-0.587061,-0.013932,-0.047365,0.134404,1,1,0
4638,116,-0.593447,0.081323,-0.096754,0.114412,1,1,0
4602,116,-0.631346,0.008151,0.046985,-0.121137,1,1,0
4617,116,-0.585835,0.009677,0.040953,-0.037681,1,1,0
4632,116,-0.498107,0.012109,-0.032523,0.011925,1,1,0
4603,116,-0.571661,0.021629,0.107152,0.047028,1,1,0
4636,116,-0.546461,0.100472,-0.079742,0.151485,1,1,0
4621,116,-0.481906,-0.012508,-0.062344,0.204513,1,1,0
4675,117,-0.457962,0.073630,-0.149600,0.145102,1,1,0
4656,117,-0.521516,0.045497,-0.024061,-0.081559,1,1,0
4669,117,-0.478849,-0.000036,-0.128606,0.190161,1,1,0
4662,117,-0.525075,0.004886,-0.173408,0.142515,1,1,0
4650,117,-0.580737,0.012501,-0.049942,-0.065828,1,1,0
4676,117,-0.519276,0.076323,-0.068304,-0.011453,1,1,0
4665,117,-0.504372,-0.049637,-0.073984,-0.024710,1,1,0
4660,117,-0.567507,0.064562,-0.070075,0.069260,1,1,0
4659,117,-0.565420,0.153482,0.025444,0.036818,1,1,0
4667,117,-0.459217,0.039996,-0.084880,0.017838,1,1,0
4644,117,-0.536015,0.078052,0.054054,0.027902,1,1,0
4673,117,-0.489268,0.034974,-0.161764,-0.001884,1,1,0
4674,117,-0.443031,0.035905,-0.049819,0.169400,1,1,0
4666,117,-0.434135,-0.000438,-0.129687,0.162379,1,1,0
4641,117,-0.506822,0.054044,0.081260,-0.028838,1,1,0
4670,117,-0.432006,-0.072405,-0.115817,0.097186,0,1,0
4648,117,-0.590298,0.098202,0.063124,-0.046759,1,1,0
4657,117,-0.563141,0.041452,0.034371,0.048759,1,1,0
4663,117,-0.579224,0.026414,-0.134829,0.027010,1,1,0
4652,117,-0.508194,0.082004,0.036983,0.000904,1,1,0
4655,117,-0.617855,0.087313,0.178723,-0.167110,1,1,0
4661,117,-0.642960,0.055105,-0.092072,0.013387,1,1,0
4679,117,-0.524777,0.109225,-0.024496,0.104266,1,1,0
4654,117,-0.481643,0.036001,0.021352,-0.123523,1,1,0
4640,117,-0.501625,0.028874,0.018849,0.071781,1,1,0
4647,117,-0.485067,0.133302,-0.004475,-0.016240,1,1,0
4643,117,-0.426873,0.050110,0.038400,-0.068209,1,1,0
4642,117,-0.531590,0.042662,0.013136,-0.038092,1,1,0
4678,117,-0.487760,-0.000134,-0.084021,0.086110,1,1,0
4658,117,-0.650921,0.045813,0.062177,-0.122800,1,1,0
4668,117,-0.549625,0.035133,-0.117018,0.068309,1,1,0
4651,117,-0.646196,0.019739,0.050828,-0.019664,1,1,0
4645,117,-0.594679,0.008935,0.089316,-0.112265,1,1,0
4671,117,-0.520759,-0.000676,-0.020581,0.099007,1,1,0
4653,117,-0.524857,-0.002791,0.009085,-0.056830,1,1,0
4672,117,-0.447007,-0.075465,-0.119496,0.095885,0,1,0
4649,117,-0.617719,0.030126,0.128001,-0.050018,1,1,0
4677,117,-0.639061,0.067613,-0.017903,0.051632,1,1,0
4646,117,-0.546350,0.021847,0.059928,-0.061742,1,1,0
4664,117,-0.507885,0.038695,-0.050683,0.072734,1,1,0
4693,118,-0.621091,0.140748,-0.002436,-0.103937,1,0,0
4694,118,-0.562125,0.036864,0.120215,-0.038455,1,1,0
4690,118,-0.517015,0.033476,0.108068,0.009215,1,1,0
4708,118,-0.494663,0.037685,-0.035040,0.137479,1,1,0
4701,118,-0.514722,-0.035766,-0.107931,0.088701,1,1,0
4698,118,-0.571921,0.133517,0.110819,0.004562,1,1,0
4704,118,-0.503524,0.007866,-0.205563,0.154355,1,1,0
4688,118,-0.544691,-0.002429,0.097020,-0.046866,1,1,0
4692,118,-0.445591,0.126660,0.142649,-0.087978,1,1,0
4703,118,-0.609063,0.007618,-0.112733,0.096211,1,1,0
4717,118,-0.476851,0.059324,-0.009465,0.143903,1,1,0
4705,118,-0.543779,-0.054116,-0.144289,0.061494,1,1,0
4706,118,-0.516661,0.028199,-0.185987,0.089938,1,1,0
4719,118,-0.563641,0.150213,-0.090010,0.055033,1,1,0
4686,118,-0.629330,0.110043,0.096811,-0.061066,1,1,0
4681,118,-0.520955,0.091480,0.059573,0.012901,1,1,0
4715,118,-0.503119,-0.020998,-0.036257,0.118882,1,1,0
4687,118,-0.526315,-0.056113,0.151196,0.025488,1,1,0
4713,118,-0.566631,0.052647,-0.097088,0.104811,1,1,0
4684,118,-0.533044,0.098511,0.148960,-0.004187,1,1,0
4711,118,-0.546875,-0.080892,-0.024897,0.034307,1,1,0
4697,118,-0.553764,-0.038177,0.145953,-0.022333,1,1,0
4682,118,-0.630022,0.031681,0.136835,0.008181,1,1,0
4700,118,-0.535448,0.100840,-0.104481,0.114494,1,1,0
4710,118,-0.443955,-0.026546,-0.012332,0.150847,1,1,0
4714,118,-0.501979,0.033682,-0.090240,0.090778,1,1,0
4685,118,-0.497099,0.041002,0.025186,-0.106456,1,1,0
4707,118,-0.407384,0.007591,-0.130986,0.044135,1,1,0
4696,118,-0.554735,0.129715,-0.031492,-0.041510,1,1,0
4680,118,-0.522333,0.128339,0.001367,0.001842,1,1,0
4699,118,-0.539637,-0.021649,0.076515,-0.012022,1,1,0
4716,118,-0.430665,-0.065260,-0.059505,0.161561,0,1,0
4709,118,-0.469156,-0.080557,-0.068401,0.106142,0,1,0
4702,118,-0.519538,0.010515,-0.027587,0.195820,1,1,0
4712,118,-0.482082,-0.036985,-0.052042,0.126012,1,1,0
4691,118,-0.589470,0.068936,0.063560,-0.029072,1,1,0
4718,118,-0.545834,-0.029862,-0.059744,0.136824,1,1,0
4683,118,-0.562032,0.101111,0.051584,0.058255,1,1,0
4695,118,-0.621242,0.063030,0.073089,-0.004755,1,1,0
4689,118,-0.505139,0.004876,0.022445,-0.039118,1,1,0
4734,119,-0.606095,0.007074,-0.025963,-0.021548,1,1,0
4730,119,-0.531279,0.001921,0.129713,-0.056280,1,1,0
4748,119,-0.459750,-0.025379,-0.147635,0.092311,1,1,0
4739,119,-0.516463,0.074907,0.120589,0.009291,1,1,0
4735,119,-0.552707,0.082519,0.007089,-0.068117,1,1,0
4737,119,-0.559930,0.038230,0.077432,-0.041709,1,1,0
4747,119,-0.560294,0.000897,-0.056331,0.121205,1,1,0
4744,119,-0.469386,-0.064470,-0.131698,0.053149,1,1,0
4752,119,-0.415811,0.036356,-0.124207,0.132109,1,1,0
4754,119,-0.491217,0.018557,-0.099161,0.063558,1,1,0
4736,119,-0.533971,0.190080,-0.012260,-0.075771,1,0,0
4750,119,-0.451578,0.067811,-0.106551,0.053265,1,1,0
4740,119,-0.446253,0.029062,-0.012903,0.138843,1,1,0
4745,119,-0.477164,-0.019211,-0.109141,0.125685,1,1,0
4726,119,-0.546812,-0.020541,0.067155,0.030515,1,1,0
4757,119,-0.403287,0.005974,-0.064333,0.087255,1,1,0
4728,119,-0.524281,0.038107,0.076341,-0.009321,1,1,0
4753,119,-0.380025,-0.006758,-0.054002,0.141355,0,1,0
4731,119,-0.601209,0.089300,0.045735,-0.004158,1,1,0
4725,119,-0.565647,0.013673,0.142327,-0.038332,1,1,0
4727,119,-0.590133,0.078147,0.121604,0.023025,1,1,0
4759,119,-0.594015,0.014184,-0.150228,-0.067966,1,1,0
4758,119,-0.574522,-0.019928,-0.151392,-0.034917,1,1,0
4749,119,-0.542279,-0.063627,0.031651,0.084318,1,1,0
4738,119,-0.507440,0.066277,0.109892,0.004303,1,1,0
4733,119,-0.574991,0.113181,0.046560,-0.038922,1,1,0
4746,119,-0.553905,0.002519,-0.095363,0.114665,1,1,0
4743,119,-0.479392,0.022450,-0.076522,0.157370,1,1,0
4723,119,-0.541341,0.093762,0.055374,0.063045,1,1,0
4720,119,-0.609946,0.048631,0.110566,0.076393,1,1,0
4742,119,-0.505858,-0.002468,-0.067559,0.110300,1,1,0
4755,119,-0.447466,-0.059810,-0.124642,0.072614,1,1,0
4724,119,-0.559462,0.062592,0.102717,-0.041066,1,1,0
4756,119,-0.510453,0.044683,-0.032301,0.141688,1,1,0
4721,119,-0.554937,0.102586,0.044945,0.000463,1,1,0
4741,119,-0.499150,0.122501,-0.090784,0.158836,1,1,0
4722,119,-0.624912,0.090416,0.079763,-0.041999,1,1,0
4732,119,-0.538489,0.019394,0.135879,-0.011047,1,1,0
4751,119,-0.510841,0.048922,-0.119772,0.089346,1,1,0
4729,119,-0.549476,0.128047,0.000819,0.043627,1,1,0
4770,120,-0.505268,0.016364,0.120510,-0.042557,1,1,0
4765,120,-0.517746,0.036144,0.025344,-0.052722,1,1,0
4768,120,-0.543292,0.080344,0.173396,-0.057203,1,1,0
4795,120,-0.476731,0.063310,-0.158043,0.019489,1,1,0
4783,120,-0.488376,0.002125,-0.051820,0.097868,1,1,0
4777,120,-0.554803,0.021874,0.023889,0.012966,1,1,0
4787,120,-0.498909,0.030729,-0.106659,0.154068,1,1,0
4767,120,-0.568311,0.032147,0.106938,0.049004,1,1,0
4772,120,-0.496810,0.054567,0.022083,-0.053754,1,1,0
4769,120,-0.596176,0.034510,0.100519,0.052973,1,1,0
4791,120,-0.489590,-0.018806,-0.081799,0.137281,1,1,0
4790,120,-0.565019,-0.020274,-0.068128,0.130650,1,1,0
4786,120,-0.534720,0.019197,-0.046353,0.134837,1,1,0
4766,120,-0.572296,0.086095,0.039612,-0.042964,1,1,0
4763,120,-0.520636,0.081321,-0.012951,0.022342,1,1,0
4789,120,-0.540345,0.048195,-0.002587,0.111523,1,1,0
4780,120,-0.506210,0.073945,-0.068068,0.104023,1,1,0
4779,120,-0.624021,0.125904,0.042851,0.023405,1,0,0
4782,120,-0.557723,0.042504,-0.038091,0.117011,1,1,0
4762,120,-0.581445,0.047391,0.074318,0.083005,1,1,0
4796,120,-0.504633,0.056699,-0.181893,0.096275,1,1,0
4775,120,-0.507283,-0.013781,0.060392,-0.025147,1,1,0
4797,120,-0.465018,0.065186,-0.075459,0.140164,1,1,0
4793,120,-0.402515,0.024860,-0.099670,0.101477,1,1,0
4781,120,-0.490822,0.025599,0.062389,0.083716,1,1,0
4785,120,-0.487262,-0.068027,-0.071986,0.085434,1,1,0
4792,120,-0.513845,0.034460,0.019119,0.055775,1,1,0
4774,120,-0.443599,0.079782,0.039464,0.024367,1,1,0
4788,120,-0.488002,0.076840,-0.041129,0.136452,1,1,0
4778,120,-0.545146,0.064687,0.059199,0.043868,1,1,0
4773,120,-0.539266,0.106839,0.053751,-0.065517,1,1,0
4776,120,-0.574054,0.052954,0.059227,-0.009464,1,1,0
4798,120,-0.550941,0.020909,-0.066775,0.104431,1,1,0
4784,120,-0.523751,-0.029742,-0.083548,0.005335,1,1,0
4760,120,-0.483093,0.041503,-0.040895,-0.029821,1,1,0
4794,120,-0.418880,0.011688,-0.058129,0.048773,1,1,0
4799,120,-0.435363,0.065099,-0.097108,0.131189,1,1,0
4771,120,-0.502653,0.069764,0.085206,-0.125925,1,1,0
4764,120,-0.505429,0.108574,0.127443,-0.105128,1,1,0
4761,120,-0.548951,0.050975,0.051908,0.049431,1,1,0
4818,121,-0.498664,0.046372,-0.073253,-0.119319,1,1,0
4803,121,-0.487561,0.066490,-0.024032,-0.090104,1,1,0
4808,121,-0.571075,0.035467,-0.016223,-0.090873,1,1,0
4800,121,-0.565395,0.008953,-0.019780,-0.037661,1,1,0
4831,121,-0.577634,0.080905,-0.153898,0.104201,1,1,0
4805,121,-0.583788,0.022159,-0.006291,-0.093650,1,1,0
4812,121,-0.501040,0.090853,0.082830,-0.037025,1,1,0
4810,121,-0.556655,0.132926,-0.065505,-0.130277,1,1,0
4826,121,-0.496516,0.049427,-0.059396,0.080854,1,1,0
4824,121,-0.492964,-0.020706,-0.082083,0.078447,1,1,0
4827,121,-0.479167,-0.102561,-0.031897,0.119388,0,1,0
4839,121,-0.549312,0.042545,-0.132707,0.065737,1,1,0
4828,121,-0.480427,0.006587,-0.060718,0.088425,1,1,0
4806,121,-0.506397,0.045861,0.025784,-0.057592,1,1,0
4835,121,-0.461635,0.042367,-0.190181,0.134884,1,1,0
4814,121,-0.547570,0.049924,-0.139261,-0.104777,1,1,0
4819,121,-0.515610,0.069904,-0.022369,-0.010599,1,1,0
4821,121,-0.538870,0.050967,-0.066620,0.144622,1,1,0
4836,121,-0.455205,0.025202,-0.043474,0.116380,1,1,0
4815,121,-0.468255,-0.015106,0.039630,-0.026977,1,1,0
4838,121,-0.455686,0.069684,-0.077898,0.059779,1,1,0
4802,121,-0.498405,0.057351,0.015831,-0.061351,1,1,0
4837,121,-0.461529,-0.015388,-0.092349,0.102118,1,1,0
4817,121,-0.551528,0.070482,0.012877,-0.063280,1,1,0
4822,121,-0.498878,0.002208,-0.155264,0.192479,1,1,0
4804,121,-0.600647,-0.015469,0.053004,-0.005429,1,1,0
4813,121,-0.485856,0.022507,-0.003428,0.026664,1,1,0
4809,121,-0.604366,0.104680,0.100070,-0.053727,1,1,0
4801,121,-0.500719,0.089173,-0.052578,-0.058681,1,1,0
4820,121,-0.441217,0.031610,-0.095951,0.088843,1,1,0
4811,121,-0.479795,0.048494,0.014255,-0.011684,1,1,0
4823,121,-0.556915,0.057858,-0.102547,0.145621,1,1,0
4830,121,-0.515227,0.039627,-0.082889,0.135425,1,1,0
4829,121,-0.545700,0.110021,-0.031150,0.168170,1,1,0
4833,121,-0.485534,-0.022554,-0.104347,0.038582,1,1,0
4825,121,-0.522418,-0.012040,-0.126940,0.080189,1,1,0
4834,121,-0.588346,-0.021028,-0.113405,0.110971,1,1,0
4816,121,-0.557837,0.121307,-0.066047,-0.064020,1,1,0
4807,121,-0.595843,0.007071,-0.007654,0.021619,1,1,0
4832,121,-0.553971,0.053388,-0.149640,0.128580,1,1,0
4858,122,-0.629459,0.111285,-0.021435,0.009871,1,0,0
4861,122,-0.543277,0.062548,-0.118608,0.133131,1,1,0
4862,122,-0.546901,0.040938,-0.103714,0.003591,1,1,0
4878,122,-0.479640,-0.024957,0.006133,0.048642,1,1,0
4843,122,-0.533627,0.113236,0.004892,0.028061,1,1,0
4865,122,-0.496723,0.094894,-0.068386,0.126024,1,1,0
4872,122,-0.533217,0.118502,-0.121843,0.137028,1,1,0
4875,122,-0.412404,0.118071,-0.126239,0.115451,1,1,0
4849,122,-0.464533,0.021214,-0.005772,-0.040063,1,1,0
4857,122,-0.561931,0.017667,-0.001945,-0.066334,1,1,0
4851,122,-0.567558,0.033831,-0.011378,0.054068,1,1,0
4847,122,-0.565789,0.069651,0.001473,-0.020960,1,1,0
4844,122,-0.612996,0.108111,0.024566,0.078162,1,1,0
4853,122,-0.584856,-0.003953,0.017607,-0.020167,1,1,0
4852,122,-0.520043,0.099238,-0.033499,0.032758,1,1,0
4855,122,-0.561698,0.086071,0.058930,-0.049784,1,1,0
4877,122,-0.552077,0.071321,-0.027953,0.044959,1,1,0
4840,122,-0.527396,0.034179,0.031089,-0.066652,1,1,0
4845,122,-0.471850,0.045442,-0.069334,0.056586,1,1,0
4879,122,-0.590841,-0.014427,-0.028540,0.070361,1,1,0
4846,122,-0.544474,0.032360,-0.038930,0.014470,1,1,0
4876,122,-0.514697,0.074435,-0.114481,0.006643,1,1,0
4842,122,-0.623802,0.078160,-0.046087,0.039712,1,1,0
4867,122,-0.505677,-0.024400,-0.167561,0.037585,1,1,0
4859,122,-0.478134,0.093804,0.045283,-0.088916,1,1,0
4848,122,-0.584504,0.016626,0.006059,0.084256,1,1,0
4860,122,-0.485061,0.008208,-0.082143,0.068261,1,1,0
4864,122,-0.595207,-0.017284,-0.135804,0.223875,1,1,0
4841,122,-0.521432,0.049395,-0.030524,0.049160,1,1,0
4874,122,-0.483062,0.031855,-0.084095,0.138413,1,1,0
4870,122,-0.440082,-0.059586,-0.062901,0.084571,1,1,0
4854,122,-0.587982,0.101654,-0.108289,-0.003585,1,1,0
4869,122,-0.569528,0.016848,-0.141560,0.066796,1,1,0
4850,122,-0.601392,0.144593,-0.086542,-0.077509,1,0,0
4871,122,-0.499551,0.083857,-0.096170,0.222289,1,1,0
4863,122,-0.537405,0.049521,-0.159144,0.148514,1,1,0
4873,122,-0.534655,0.058672,-0.107567,0.093608,1,1,0
4866,122,-0.446812,0.114083,-0.057558,0.091193,1,1,0
4868,122,-0.493123,0.040620,-0.042998,0.128734,1,1,0
4856,122,-0.569972,-0.000409,-0.010145,-0.041566,1,1,0
4907,123,-0.445069,0.078998,-0.105307,0.143598,1,1,0
4908,123,-0.499420,0.038471,-0.062758,0.076100,1,1,0
4916,123,-0.514209,0.003092,-0.009776,0.162066,1,1,0
4919,123,-0.527639,-0.002355,-0.146134,0.186330,1,1,0
4884,123,-0.674786,0.044596,0.005351,-0.045551,1,0,0
4910,123,-0.551177,0.047621,-0.107155,0.001417,1,1,0
4903,123,-0.497723,-0.094267,-0.149250,0.064949,0,1,0
4912,123,-0.473663,0.025652,-0.014521,0.197855,1,1,0
4889,123,-0.596792,0.062413,-0.017631,-0.085113,1,1,0
4917,123,-0.478099,0.130595,-0.107722,0.132317,1,1,0
4909,123,-0.585804,-0.034548,-0.151612,-0.000552,1,1,0
4897,123,-0.522739,0.095938,-0.024082,0.046608,1,1,0
4880,123,-0.505171,0.070758,-0.030272,-0.120742,1,1,0
4901,123,-0.457802,-0.015752,-0.109389,0.030421,1,1,0
4890,123,-0.548271,-0.061604,0.008969,-0.046114,1,1,0
4885,123,-0.505857,0.068637,-0.035240,-0.021601,1,1,0
4887,123,-0.530597,-0.003649,0.035466,-0.090545,1,1,0
4886,123,-0.542846,0.059226,-0.006036,0.000356,1,1,0
4918,123,-0.499197,0.087059,-0.099279,0.126253,1,1,0
4898,123,-0.578178,0.045720,0.048642,0.067375,1,1,0
4893,123,-0.481965,0.075808,0.033154,-0.026718,1,1,0
4883,123,-0.499792,0.006792,0.010758,-0.047388,1,1,0
4882,123,-0.424019,0.077687,-0.045158,0.005768,1,1,0
4895,123,-0.476586,0.161866,-0.045297,0.030733,1,1,0
4896,123,-0.533666,0.095595,-0.029930,-0.064590,1,1,0
4891,123,-0.512667,0.169887,0.013508,-0.045694,1,1,0
4911,123,-0.398232,0.089586,-0.059296,0.248513,1,1,0
4881,123,-0.505478,0.064389,0.035006,-0.030888,1,1,0
4913,123,-0.470345,0.036465,-0.125657,0.186710,1,1,0
4905,123,-0.434840,-0.026286,-0.081186,0.094234,1,1,0
4894,123,-0.563264,0.026642,-0.005275,0.023782,1,1,0
4902,123,-0.511755,-0.012337,-0.038476,0.040674,1,1,0
4914,123,-0.493511,0.010814,-0.114134,0.207827,1,1,0
4904,123,-0.525195,0.029111,-0.028697,0.122880,1,1,0
4888,123,-0.510986,0.070387,-0.049095,-0.063903,1,1,0
4899,123,-0.568767,0.147754,-0.047417,0.025654,1,1,0
4915,123,-0.500883,0.034025,-0.085688,0.097861,1,1,0
4900,123,-0.554315,0.038248,-0.040107,0.174696,1,1,0
4892,123,-0.650229,-0.025506,-0.024357,-0.029042,1,0,0
4906,123,-0.540040,0.008149,-0.132731,0.169758,1,1,0
4929,124,-0.603238,0.008106,-0.017187,0.029714,1,1,0
4935,124,-0.592986,0.005497,-0.010180,-0.003013,1,1,0
4952,124,-0.488049,0.042386,-0.176912,0.092314,1,1,0
4950,124,-0.574561,-0.024005,-0.111842,0.087757,1,1,0
4940,124,-0.443841,-0.011428,-0.041392,0.088745,1,1,0
4937,124,-0.605199,0.010278,-0.005521,-0.082605,1,1,0
4926,124,-0.525333,0.029149,-0.069103,-0.126075,1,1,0
4930,124,-0.588163,0.013886,-0.035464,-0.058161,1,1,0
4955,124,-0.496412,-0.046887,-0.062991,0.127230,1,1,0
4939,124,-0.484060,0.065801,0.028256,-0.095589,1,1,0
4938,124,-0.571798,0.069099,0.023287,-0.015362,1,1,0
4958,124,-0.530881,0.019720,-0.097864,0.123842,1,1,0
4933,124,-0.514922,0.107021,0.018616,-0.057134,1,1,0
4922,124,-0.514795,0.014945,-0.082770,-0.022544,1,1,0
4931,124,-0.615929,0.078307,0.011444,-0.055861,1,1,0
4924,124,-0.527336,0.021575,0.083319,-0.048237,1,1,0
4954,124,-0.576775,-0.030847,-0.060015,0.054955,1,1,0
4927,124,-0.598355,0.039984,-0.041832,-0.052237,1,1,0
4945,124,-0.477785,0.024382,-0.092642,0.076915,1,1,0
4923,124,-0.578543,0.074066,0.121634,0.050056,1,1,0
4920,124,-0.509296,0.080902,-0.011462,-0.036832,1,1,0
4953,124,-0.498396,0.115020,-0.097827,0.204501,1,1,0
4925,124,-0.523479,-0.005331,-0.056420,0.035790,1,1,0
4934,124,-0.572883,0.064340,0.014023,-0.035820,1,1,0
4928,124,-0.559255,0.034118,0.128058,-0.049425,1,1,0
4944,124,-0.508831,-0.110460,-0.070824,0.128895,0,1,0
4921,124,-0.499213,0.061133,-0.099982,-0.092048,1,1,0
4942,124,-0.463489,-0.007430,-0.067191,0.059876,1,1,0
4951,124,-0.530023,0.036176,-0.091419,0.213776,1,1,0
4959,124,-0.503982,-0.028248,-0.122662,0.057061,1,1,0
4946,124,-0.506725,-0.026536,-0.037959,0.061556,1,1,0
4949,124,-0.488304,0.045082,-0.051618,0.127171,1,1,0
4947,124,-0.471988,0.097124,-0.087887,0.064001,1,1,0
4943,124,-0.547392,0.030010,-0.092789,0.053720,1,1,0
4957,124,-0.508990,0.046188,-0.086588,0.071858,1,1,0
4936,124,-0.474580,0.077242,0.069522,-0.025226,1,1,0
4948,124,-0.479303,0.022274,-0.063093,-0.018704,1,1,0
4941,124,-0.497805,0.026596,-0.148803,0.057428,1,1,0
4932,124,-0.610865,0.065736,0.068972,0.082632,1,1,0
4956,124,-0.511745,0.109401,-0.133875,0.097057,1,1,0
4992,125,-0.554745,-0.020380,-0.079374,0.071401,1,1,0
4995,125,-0.560402,0.026511,-0.010632,0.173645,1,1,0
4960,125,-0.639540,0.065632,0.010017,-0.018516,1,1,0
4971,125,-0.575190,0.025856,-0.002553,-0.109671,1,1,0
4980,125,-0.437186,0.103699,-0.163974,0.132611,1,1,0
4963,125,-0.522435,0.031744,-0.089690,-0.086060,1,1,0
4986,125,-0.489421,-0.042947,-0.089764,0.105091,1,1,0
4990,125,-0.489921,0.050465,-0.115627,0.087857,1,1,0
4984,125,-0.453268,0.051530,-0.028360,0.172543,1,1,0
4991,125,-0.502481,-0.004547,-0.154987,0.011847,1,1,0
4972,125,-0.437230,0.075691,-0.038797,-0.021912,1,1,0
4979,125,-0.611025,-0.008065,0.083743,0.082891,1,1,0
4997,125,-0.519719,0.107605,-0.015268,0.242536,1,1,0
4968,125,-0.457987,0.071877,-0.027525,0.002305,1,1,0
4962,125,-0.579281,0.070456,0.021779,-0.069865,1,1,0
4977,125,-0.522540,0.054173,-0.027794,-0.018113,1,1,0
4983,125,-0.506357,-0.018609,-0.022123,0.096269,1,1,0
4975,125,-0.543176,0.049919,-0.003284,-0.065762,1,1,0
4999,125,-0.493650,0.028648,-0.169174,0.178511,1,1,0
4981,125,-0.487449,0.000308,-0.068959,0.220613,1,1,0
4996,125,-0.512237,0.135350,-0.058652,0.213026,1,1,0
4989,125,-0.603227,0.049128,0.025635,0.038049,1,1,0
4978,125,-0.538847,0.042385,-0.019485,-0.053443,1,1,0
4974,125,-0.587732,0.035694,-0.067830,-0.043512,1,1,0
4985,125,-0.554124,0.102558,-0.122093,0.106498,1,1,0
4966,125,-0.534857,0.071388,0.014488,-0.053323,1,1,0
4973,125,-0.586249,-0.032813,-0.061115,-0.048636,1,1,0
4964,125,-0.581728,0.024965,0.029272,-0.038877,1,1,0
4994,125,-0.476532,-0.001149,-0.072667,0.169319,1,1,0
4965,125,-0.623008,0.047156,0.016718,-0.064919,1,1,0
4988,125,-0.560046,0.089853,-0.021620,0.202367,1,1,0
4961,125,-0.542691,0.020129,0.036203,0.001069,1,1,0
4993,125,-0.465380,0.072534,-0.083177,0.045042,1,1,0
4970,125,-0.622738,0.062381,-0.003289,-0.035750,1,1,0
4967,125,-0.499765,0.051775,-0.027114,-0.035567,1,1,0
4969,125,-0.487653,0.037332,0.046521,-0.052066,1,1,0
4998,125,-0.475469,-0.104232,-0.091677,0.176460,0,1,0
4976,125,-0.505141,0.077584,-0.031178,-0.060989,1,1,0
4982,125,-0.434913,-0.007514,-0.098173,0.190407,1,1,0
4987,125,-0.528802,0.104749,-0.128429,0.095893,1,1,0
5037,126,-0.412860,-0.022733,-0.039739,0.120802,1,1,0
5009,126,-0.532871,-0.003978,-0.022437,0.003381,1,1,0