@relation stream_gen

@attribute global_id NUMERIC
@attribute timestamp NUMERIC
@attribute f1 NUMERIC
@attribute f2 NUMERIC
@attribute f3 NUMERIC
@attribute f4 NUMERIC
@attribute f5 NUMERIC
@attribute class_0 {0,1}
@attribute class_1 {0,1}

@data
20,1,-0.894399,-0.072459,-0.432895,-0.382388,-0.403432,1,1
1,1,-0.851921,0.104266,-0.294388,-0.354193,-0.368683,1,0
37,1,-0.817031,-0.162949,-0.461731,-0.395668,-0.433586,0,1
33,1,-0.855749,-0.128288,-0.457904,-0.395426,-0.422790,1,1
28,1,-0.703475,0.020185,-0.510533,-0.429163,-0.387514,1,1
10,1,-0.754370,0.082600,-0.369266,-0.289917,-0.340357,1,0
12,1,-0.809318,-0.047507,-0.352804,-0.229069,-0.344800,1,1
13,1,-0.859196,0.028104,-0.401775,-0.382978,-0.345515,1,1
0,1,-0.777768,0.005570,-0.348285,-0.287427,-0.331823,1,1
11,1,-0.736143,0.010937,-0.329627,-0.394007,-0.379321,1,1
39,1,-0.872609,-0.133795,-0.406739,-0.368722,-0.317674,0,1
34,1,-0.886504,-0.087506,-0.470434,-0.414890,-0.427483,1,1
23,1,-0.770974,-0.034278,-0.473158,-0.399514,-0.423935,1,1
30,1,-0.761754,-0.091693,-0.440678,-0.460375,-0.444517,1,1
18,1,-0.814351,0.064689,-0.477135,-0.374209,-0.302679,1,0
7,1,-0.898654,-0.055999,-0.380633,-0.414196,-0.404020,1,1
31,1,-0.815711,-0.056418,-0.479075,-0.395473,-0.450210,1,1
8,1,-0.742769,-0.015086,-0.438906,-0.404619,-0.377407,1,1
5,1,-0.745989,0.024707,-0.386870,-0.448936,-0.413770,1,1
9,1,-0.880686,-0.013767,-0.285272,-0.452917,-0.317411,1,1
26,1,-0.739430,-0.076016,-0.430231,-0.417777,-0.364301,1,1
29,1,-0.807108,-0.117186,-0.428721,-0.436096,-0.382846,1,1
19,1,-0.857606,0.081872,-0.428743,-0.365694,-0.387756,1,0
25,1,-0.747334,-0.157924,-0.489512,-0.356878,-0.444694,0,1
38,1,-0.797306,-0.127679,-0.394133,-0.514658,-0.483081,1,1
24,1,-0.757595,-0.031462,-0.441069,-0.376518,-0.465557,1,1
3,1,-0.814929,0.042153,-0.451883,-0.412134,-0.342727,1,1
2,1,-0.863650,0.019503,-0.403276,-0.423355,-0.326167,1,1
22,1,-0.854291,-0.075079,-0.388114,-0.383874,-0.346837,1,1
14,1,-0.788008,-0.019169,-0.406138,-0.408641,-0.315909,1,1
32,1,-0.794478,-0.069991,-0.490246,-0.466458,-0.362400,1,1
35,1,-0.748542,-0.077106,-0.464425,-0.395531,-0.436643,1,1
36,1,-0.784138,-0.129660,-0.417688,-0.395905,-0.360544,1,1
6,1,-0.798895,-0.027462,-0.261173,-0.357936,-0.416671,1,1
21,1,-0.819212,-0.122732,-0.354472,-0.470424,-0.332942,1,1
17,1,-0.862983,-0.041094,-0.438188,-0.419266,-0.368686,1,1
4,1,-0.759713,0.019878,-0.556714,-0.372851,-0.333698,1,1
16,1,-0.870857,0.054212,-0.439937,-0.437128,-0.275350,1,0
15,1,-0.795416,-0.031961,-0.320185,-0.356905,-0.276350,1,1
27,1,-0.791216,-0.139010,-0.496217,-0.420697,-0.465239,1,1
61,2,-0.818566,-0.102572,-0.483449,-0.430312,-0.499019,1,1
66,2,-0.792919,-0.147878,-0.428910,-0.382666,-0.413733,1,1
69,2,-0.868198,-0.025488,-0.490399,-0.311879,-0.361151,1,1
54,2,-0.841911,0.014340,-0.439819,-0.355302,-0.364166,1,1
46,2,-0.729191,0.041286,-0.398481,-0.348185,-0.300128,1,1
73,2,-0.843090,-0.053020,-0.411747,-0.463367,-0.384559,1,1
63,2,-0.785880,-0.149263,-0.509074,-0.435490,-0.393517,0,1
50,2,-0.816605,-0.008042,-0.460488,-0.335691,-0.320832,1,1
62,2,-0.853678,-0.127239,-0.405667,-0.463562,-0.393090,1,1
78,2,-0.768882,-0.064271,-0.453839,-0.512150,-0.350363,1,1
48,2,-0.827495,0.055076,-0.338885,-0.367054,-0.315605,1,1
51,2,-0.707057,0.003995,-0.423088,-0.347494,-0.364778,1,1
40,2,-0.757221,0.080308,-0.429782,-0.364129,-0.321595,1,0
58,2,-0.827355,0.008923,-0.368981,-0.367611,-0.307079,1,1
42,2,-0.780056,0.067506,-0.372340,-0.307094,-0.311814,1,0
47,2,-0.701047,0.023771,-0.385077,-0.397263,-0.387436,1,1
72,2,-0.805936,-0.036843,-0.398127,-0.364683,-0.366107,1,1
55,2,-0.796617,0.038364,-0.455298,-0.360108,-0.347084,1,1
77,2,-0.829647,-0.109721,-0.457763,-0.462466,-0.305127,1,1
56,2,-0.729858,-0.019056,-0.376875,-0.331907,-0.341343,1,1
70,2,-0.825389,-0.124241,-0.332779,-0.352546,-0.381316,1,1
64,2,-0.857388,0.005027,-0.452296,-0.467013,-0.364183,1,1
49,2,-0.763989,0.029842,-0.488236,-0.371496,-0.473786,1,1
79,2,-0.746524,-0.044742,-0.458647,-0.516169,-0.372128,1,1
76,2,-0.863127,-0.078622,-0.325718,-0.415592,-0.383369,1,1
71,2,-0.769463,-0.099642,-0.491826,-0.485739,-0.390642,1,1
60,2,-0.834994,-0.060374,-0.400489,-0.403983,-0.403139,1,1
41,2,-0.739748,-0.066692,-0.315499,-0.377206,-0.382351,1,1
52,2,-0.753985,0.089226,-0.495245,-0.422503,-0.304878,1,0
65,2,-0.774371,-0.088295,-0.518182,-0.333317,-0.455975,1,1
68,2,-0.780381,-0.077294,-0.515848,-0.414264,-0.442604,1,1
44,2,-0.778330,-0.015648,-0.420848,-0.367434,-0.384128,1,1
59,2,-0.810664,-0.006553,-0.523828,-0.374832,-0.328188,1,1
43,2,-0.814707,-0.084897,-0.393919,-0.394854,-0.286242,1,1
67,2,-0.736594,-0.058728,-0.534921,-0.425747,-0.399468,1,1
74,2,-0.785427,-0.217652,-0.508227,-0.420145,-0.485121,0,1
75,2,-0.784391,-0.147528,-0.491004,-0.404357,-0.402441,1,1
57,2,-0.937503,-0.006540,-0.348488,-0.311716,-0.325108,1,0
53,2,-0.851499,-0.068283,-0.381541,-0.427838,-0.367932,1,1
45,2,-0.768982,0.017992,-0.389606,-0.371338,-0.381308,1,1
109,3,-0.652277,-0.070688,-0.434591,-0.396920,-0.405669,1,1
99,3,-0.842194,-0.014202,-0.323461,-0.403863,-0.367680,1,1
81,3,-0.760322,-0.083980,-0.381648,-0.365335,-0.378312,1,1
110,3,-0.705555,-0.122226,-0.489773,-0.333954,-0.417664,1,1
93,3,-0.864391,0.018799,-0.394729,-0.331839,-0.351154,1,0
101,3,-0.768844,-0.017510,-0.445267,-0.438747,-0.371403,1,1
95,3,-0.786270,-0.025973,-0.491339,-0.407973,-0.310534,1,1
105,3,-0.775282,-0.082128,-0.415310,-0.443030,-0.307076,1,1
111,3,-0.855099,-0.042127,-0.477229,-0.416508,-0.279831,1,1
116,3,-0.789950,-0.032926,-0.368346,-0.371584,-0.278374,1,1
114,3,-0.760597,-0.130872,-0.480179,-0.400939,-0.219733,1,1
118,3,-0.772445,-0.156782,-0.455637,-0.405822,-0.335081,0,1
102,3,-0.726717,-0.124176,-0.361946,-0.388310,-0.490956,1,1
83,3,-0.844448,0.065727,-0.356478,-0.357486,-0.313650,1,0
84,3,-0.775807,-0.019825,-0.441445,-0.382307,-0.368056,1,1
107,3,-0.671315,-0.091953,-0.368781,-0.408048,-0.301545,1,1
106,3,-0.775815,-0.090767,-0.426496,-0.551035,-0.327392,1,1
82,3,-0.892164,-0.036739,-0.469300,-0.320714,-0.297260,1,0
91,3,-0.802768,0.020567,-0.296102,-0.404191,-0.422792,1,1
90,3,-0.832210,0.035278,-0.375264,-0.382249,-0.232509,1,0
104,3,-0.683665,-0.171173,-0.375348,-0.311018,-0.410812,0,1
92,3,-0.839031,-0.001832,-0.335286,-0.408924,-0.348084,1,1
117,3,-0.772939,-0.187517,-0.356967,-0.473453,-0.329487,0,1
119,3,-0.849871,-0.057437,-0.404871,-0.381684,-0.376651,1,1
85,3,-0.688801,0.130494,-0.410118,-0.365444,-0.335259,1,0
103,3,-0.751992,-0.049538,-0.400035,-0.330420,-0.282342,1,1
98,3,-0.849984,0.070487,-0.343621,-0.392590,-0.379841,1,0
88,3,-0.829714,0.047331,-0.346534,-0.426000,-0.333395,1,0
89,3,-0.749561,0.094707,-0.526951,-0.369676,-0.247673,1,0
113,3,-0.677847,-0.201134,-0.514582,-0.507250,-0.355057,0,1
108,3,-0.753230,-0.024799,-0.417206,-0.460080,-0.400303,1,1
97,3,-0.774567,0.047901,-0.472609,-0.344907,-0.333746,1,1
94,3,-0.760084,-0.000070,-0.324498,-0.439014,-0.308519,1,1
115,3,-0.751598,-0.095819,-0.475251,-0.443209,-0.429946,1,1
80,3,-0.775995,0.018900,-0.411735,-0.454297,-0.456095,1,1
112,3,-0.691592,-0.048808,-0.372792,-0.399748,-0.377761,1,1
87,3,-0.905078,0.028800,-0.393600,-0.390080,-0.393962,1,0
86,3,-0.754409,-0.029293,-0.422705,-0.308859,-0.434167,1,1
100,3,-0.720894,-0.086645,-0.402253,-0.425915,-0.366206,1,1
96,3,-0.685692,-0.048335,-0.445997,-0.388589,-0.287576,1,1
126,4,-0.707081,-0.029625,-0.356657,-0.324197,-0.335703,1,1
135,4,-0.678829,0.064778,-0.288262,-0.410083,-0.328449,1,0
132,4,-0.694969,-0.030731,-0.349995,-0.351376,-0.337590,1,1
138,4,-0.744280,0.020092,-0.346685,-0.344625,-0.320047,1,1
151,4,-0.654570,-0.032076,-0.310175,-0.333743,-0.302392,1,1
150,4,-0.733246,-0.144364,-0.435399,-0.318124,-0.345035,1,1
155,4,-0.754359,-0.086578,-0.377500,-0.434639,-0.279714,1,1
148,4,-0.731772,-0.089742,-0.383016,-0.353404,-0.392360,1,1
157,4,-0.650246,-0.160895,-0.377744,-0.325631,-0.321126,0,1
137,4,-0.692550,-0.086808,-0.413337,-0.327355,-0.313365,1,1
146,4,-0.732693,-0.159079,-0.376988,-0.363118,-0.357645,0,1
159,4,-0.711767,-0.106320,-0.343048,-0.294947,-0.244172,1,1
154,4,-0.700066,-0.059509,-0.402578,-0.403456,-0.316890,1,1
125,4,-0.718444,0.072820,-0.384478,-0.397422,-0.320857,1,0
140,4,-0.643078,-0.063636,-0.332242,-0.337710,-0.304261,1,1
147,4,-0.682034,0.018547,-0.364947,-0.422299,-0.292377,1,1
139,4,-0.721607,0.041313,-0.397470,-0.342946,-0.252400,1,1
128,4,-0.702183,-0.038843,-0.377361,-0.370489,-0.239808,1,1
143,4,-0.650469,-0.090296,-0.392479,-0.442189,-0.420335,1,1
131,4,-0.758048,-0.080507,-0.351855,-0.343076,-0.255373,1,1
145,4,-0.667552,-0.143979,-0.461385,-0.379168,-0.329860,1,1
127,4,-0.714717,0.027197,-0.236853,-0.311484,-0.318750,1,1
141,4,-0.672346,-0.157123,-0.339447,-0.364555,-0.355761,0,1
136,4,-0.780699,0.019582,-0.383131,-0.320952,-0.273349,1,1
144,4,-0.686825,-0.116229,-0.485110,-0.395141,-0.360803,1,1
123,4,-0.682701,0.033622,-0.368941,-0.303780,-0.339001,1,1
153,4,-0.577416,-0.094837,-0.338117,-0.300761,-0.308214,0,1
130,4,-0.706767,-0.005487,-0.315134,-0.312406,-0.428496,1,1
120,4,-0.774100,-0.017727,-0.368440,-0.391173,-0.335417,1,1
133,4,-0.713617,-0.061786,-0.359330,-0.349891,-0.330328,1,1
152,4,-0.725538,-0.127359,-0.403641,-0.450106,-0.361039,1,1
134,4,-0.697121,-0.057256,-0.402964,-0.363645,-0.383519,1,1
149,4,-0.688165,-0.046216,-0.430550,-0.380328,-0.384887,1,1
121,4,-0.744860,0.018298,-0.458318,-0.358376,-0.254551,1,1
122,4,-0.687622,0.035523,-0.395749,-0.294232,-0.340098,1,1
158,4,-0.637056,-0.102509,-0.319639,-0.320337,-0.232070,1,1
124,4,-0.705535,0.007827,-0.379479,-0.286832,-0.351046,1,1
142,4,-0.779630,-0.069750,-0.354351,-0.304438,-0.319658,1,1
129,4,-0.685179,-0.111968,-0.400587,-0.251403,-0.253916,1,1
156,4,-0.727949,-0.056086,-0.409912,-0.399038,-0.327726,1,1
199,5,-0.596951,-0.047028,-0.452469,-0.346262,-0.354133,1,1
193,5,-0.661436,-0.095258,-0.368202,-0.418522,-0.369915,1,1
184,5,-0.627566,-0.136143,-0.445079,-0.312671,-0.181274,1,1
186,5,-0.653582,-0.008776,-0.396339,-0.381052,-0.296627,1,1
183,5,-0.682452,-0.027965,-0.354277,-0.302022,-0.300583,1,1
197,5,-0.706678,0.029417,-0.370682,-0.371175,-0.247355,1,1
198,5,-0.600944,-0.038412,-0.355746,-0.356032,-0.352016,1,1
168,5,-0.654060,0.034033,-0.410661,-0.291023,-0.365802,1,1
171,5,-0.694397,0.013404,-0.330857,-0.371496,-0.332511,1,1
176,5,-0.664070,-0.019138,-0.383883,-0.344495,-0.283189,1,1
165,5,-0.708492,0.147220,-0.384699,-0.403145,-0.290209,1,0
170,5,-0.746130,-0.029654,-0.304011,-0.246461,-0.277166,1,1
164,5,-0.678030,-0.039090,-0.341154,-0.382168,-0.323685,1,1
179,5,-0.684665,-0.021052,-0.391364,-0.269918,-0.161792,1,1
167,5,-0.673762,0.053662,-0.452274,-0.233979,-0.262321,1,1
172,5,-0.625916,-0.017376,-0.334564,-0.355790,-0.248718,1,1
163,5,-0.642012,0.010165,-0.324151,-0.280002,-0.333934,1,1
173,5,-0.645934,0.042732,-0.380649,-0.363212,-0.334842,1,1
185,5,-0.657583,-0.129333,-0.331793,-0.326954,-0.343316,1,1
196,5,-0.633818,-0.058167,-0.341879,-0.310529,-0.316430,1,1
188,5,-0.699789,-0.076702,-0.328080,-0.343726,-0.291699,1,1
195,5,-0.655263,-0.148486,-0.385648,-0.298277,-0.232327,1,1
162,5,-0.646434,-0.106349,-0.331855,-0.289737,-0.244370,1,1
177,5,-0.602900,-0.002140,-0.296297,-0.284838,-0.382120,1,1
160,5,-0.625536,0.009729,-0.395456,-0.345613,-0.315606,1,1
174,5,-0.652977,0.002798,-0.404427,-0.261151,-0.288375,1,1
194,5,-0.670224,-0.110092,-0.390097,-0.356669,-0.347290,1,1
181,5,-0.594225,-0.066019,-0.362161,-0.298010,-0.418874,1,1
182,5,-0.655604,-0.064494,-0.309153,-0.309301,-0.333220,1,1
189,5,-0.734721,-0.026676,-0.338909,-0.425813,-0.266806,1,1
192,5,-0.657662,-0.071741,-0.327192,-0.439310,-0.303603,1,1
169,5,-0.705504,0.101015,-0.333689,-0.290553,-0.310412,1,0
161,5,-0.642084,0.037743,-0.377654,-0.302417,-0.247297,1,1
175,5,-0.721407,-0.054811,-0.457496,-0.307203,-0.350711,1,1
191,5,-0.669311,-0.067150,-0.453172,-0.431648,-0.385031,1,1
180,5,-0.695314,-0.112829,-0.332133,-0.388181,-0.345140,1,1
178,5,-0.681158,0.049793,-0.369351,-0.344043,-0.334471,1,1
190,5,-0.700367,-0.105532,-0.390531,-0.293643,-0.317189,1,1
166,5,-0.700250,-0.026984,-0.378565,-0.351044,-0.305320,1,1
187,5,-0.669663,-0.104267,-0.426983,-0.420626,-0.401542,1,1
214,6,-0.708602,0.020002,-0.417269,-0.257851,-0.135441,1,1
225,6,-0.608543,-0.187346,-0.398862,-0.302729,-0.248846,0,1
201,6,-0.653369,-0.031879,-0.354515,-0.336047,-0.227112,1,1
222,6,-0.671578,-0.111183,-0.456944,-0.377418,-0.371100,1,1
209,6,-0.679424,0.030523,-0.373170,-0.416338,-0.181326,1,1
223,6,-0.689245,-0.069962,-0.338243,-0.296436,-0.359936,1,1
216,6,-0.632107,-0.012055,-0.295778,-0.356262,-0.320061,1,1
228,6,-0.660600,-0.072434,-0.459019,-0.317998,-0.366159,1,1
229,6,-0.735279,-0.090679,-0.417045,-0.313869,-0.330879,1,1
207,6,-0.744372,-0.045710,-0.313537,-0.321950,-0.328763,1,1
205,6,-0.633473,0.013493,-0.412503,-0.304988,-0.250096,1,1
230,6,-0.732133,-0.013977,-0.387798,-0.328843,-0.356864,1,1
219,6,-0.649320,0.054740,-0.241614,-0.337302,-0.261220,1,1
220,6,-0.694824,-0.031291,-0.372880,-0.332844,-0.299466,1,1
221,6,-0.632948,-0.116147,-0.381911,-0.311248,-0.225313,1,1
211,6,-0.660899,0.013442,-0.398924,-0.321107,-0.298853,1,1
227,6,-0.676453,-0.056651,-0.412041,-0.358536,-0.316797,1,1
206,6,-0.609748,-0.022126,-0.286486,-0.321931,-0.373457,1,1
237,6,-0.659447,-0.089535,-0.391066,-0.270370,-0.288221,1,1
235,6,-0.636031,-0.052436,-0.308538,-0.290438,-0.313010,1,1
234,6,-0.642706,-0.037511,-0.250278,-0.330483,-0.328581,1,1
208,6,-0.612308,0.015705,-0.342487,-0.380596,-0.269306,1,1
236,6,-0.525460,-0.028576,-0.306532,-0.302142,-0.294887,1,1
239,6,-0.589921,-0.113747,-0.351647,-0.426226,-0.339817,1,1
200,6,-0.725565,0.010329,-0.358743,-0.355441,-0.296074,1,1
217,6,-0.585093,0.041740,-0.328250,-0.307437,-0.267126,1,1
202,6,-0.596013,-0.035052,-0.326274,-0.429819,-0.309791,1,1
226,6,-0.581324,-0.131879,-0.371597,-0.424017,-0.265433,0,1
233,6,-0.697793,-0.042420,-0.430330,-0.312941,-0.296466,1,1
203,6,-0.643994,-0.030353,-0.294448,-0.298520,-0.280107,1,1
212,6,-0.696668,-0.156811,-0.346074,-0.340803,-0.290984,1,1
224,6,-0.595247,-0.049139,-0.328272,-0.372346,-0.293511,1,1
238,6,-0.559042,-0.005849,-0.368863,-0.327783,-0.309442,1,1
218,6,-0.610798,-0.073442,-0.339252,-0.339559,-0.281719,1,1
215,6,-0.744325,0.019432,-0.302084,-0.387603,-0.229172,1,1
231,6,-0.732772,-0.088447,-0.460589,-0.369678,-0.305890,1,1
204,6,-0.615692,-0.002898,-0.295897,-0.291388,-0.311691,1,1
210,6,-0.750621,0.031511,-0.381191,-0.320191,-0.300430,1,1
232,6,-0.633428,-0.050812,-0.345246,-0.388527,-0.247758,1,1
213,6,-0.660069,0.028083,-0.427270,-0.315530,-0.288364,1,1
260,7,-0.672644,-0.096403,-0.362600,-0.371600,-0.338759,1,1
268,7,-0.666517,-0.099145,-0.397015,-0.301438,-0.326943,1,1
245,7,-0.499959,-0.058556,-0.222343,-0.314190,-0.175645,1,0
278,7,-0.638455,-0.038021,-0.382252,-0.286483,-0.259295,1,1
277,7,-0.643534,-0.138041,-0.342169,-0.298186,-0.359989,1,1
272,7,-0.679512,-0.111226,-0.438960,-0.331652,-0.324244,1,1
249,7,-0.722253,-0.075829,-0.313632,-0.214423,-0.265559,1,1
262,7,-0.585513,-0.127497,-0.313941,-0.298442,-0.308754,1,1
255,7,-0.659470,-0.008442,-0.328791,-0.336244,-0.322797,1,1
275,7,-0.653895,-0.107006,-0.386205,-0.365782,-0.303200,1,1
246,7,-0.642784,0.002019,-0.287066,-0.243092,-0.213231,1,1
256,7,-0.646002,0.074282,-0.401567,-0.289916,-0.252056,1,0
258,7,-0.635022,-0.010428,-0.356109,-0.305201,-0.307640,1,1
274,7,-0.656963,-0.049600,-0.363460,-0.371092,-0.294091,1,1
240,7,-0.524232,-0.061205,-0.336088,-0.315724,-0.218688,1,1
273,7,-0.666404,-0.104008,-0.376918,-0.338488,-0.266322,1,1
247,7,-0.630915,0.005611,-0.369297,-0.223054,-0.200030,1,1
254,7,-0.559643,-0.063943,-0.268418,-0.280010,-0.229457,1,1
279,7,-0.596664,-0.000781,-0.352506,-0.437838,-0.351304,1,1
253,7,-0.552430,0.039944,-0.290209,-0.259500,-0.296412,1,0
244,7,-0.590635,-0.019051,-0.342037,-0.140177,-0.339642,1,1
267,7,-0.707653,-0.064995,-0.286620,-0.316138,-0.262433,1,1
269,7,-0.660489,-0.065362,-0.272171,-0.267002,-0.265768,1,1
243,7,-0.565528,0.039186,-0.300568,-0.325355,-0.325470,1,0
264,7,-0.625678,-0.072016,-0.326683,-0.390251,-0.354906,1,1
265,7,-0.631484,-0.084320,-0.344913,-0.361299,-0.471333,1,1
248,7,-0.611788,-0.014831,-0.311617,-0.311740,-0.195164,1,1
252,7,-0.727405,-0.004633,-0.373171,-0.323009,-0.289484,1,1
261,7,-0.620362,-0.013640,-0.314394,-0.356285,-0.300682,1,1
276,7,-0.724596,-0.056635,-0.361153,-0.350491,-0.420800,1,1
257,7,-0.723066,0.079693,-0.330480,-0.277377,-0.278207,1,0
250,7,-0.683675,0.007241,-0.324385,-0.354168,-0.342451,1,1
271,7,-0.645989,-0.127794,-0.403403,-0.415543,-0.297048,1,1
251,7,-0.575661,-0.020908,-0.270489,-0.248055,-0.298019,1,1
259,7,-0.649386,0.064187,-0.253634,-0.214832,-0.316150,1,0
266,7,-0.629348,-0.079300,-0.390669,-0.308681,-0.315585,1,1
241,7,-0.638618,-0.061415,-0.327966,-0.331457,-0.356699,1,1
270,7,-0.678102,-0.103185,-0.381194,-0.360346,-0.361095,1,1
242,7,-0.703993,0.026345,-0.271372,-0.244081,-0.296573,1,1
263,7,-0.677243,-0.083725,-0.334232,-0.285253,-0.289102,1,1
293,8,-0.562921,0.028881,-0.350745,-0.279147,-0.245541,1,1
300,8,-0.736065,-0.034120,-0.283014,-0.391615,-0.371458,0,1
284,8,-0.593114,0.012685,-0.264877,-0.327320,-0.281940,1,1
317,8,-0.700255,-0.111989,-0.322920,-0.300954,-0.209569,0,1
306,8,-0.624838,-0.018883,-0.331437,-0.399655,-0.275982,1,1
289,8,-0.648984,-0.014610,-0.343272,-0.244731,-0.306904,1,1
296,8,-0.624936,0.093973,-0.316390,-0.237200,-0.213168,1,0
298,8,-0.550996,0.054949,-0.256502,-0.331165,-0.253784,1,0
288,8,-0.595275,-0.001023,-0.330241,-0.330350,-0.199178,1,1
283,8,-0.557563,0.020955,-0.290804,-0.292810,-0.231378,1,1
280,8,-0.566230,0.037681,-0.276018,-0.285617,-0.213740,1,1
312,8,-0.631864,-0.074188,-0.375303,-0.257543,-0.359309,1,1
297,8,-0.519564,-0.008442,-0.271399,-0.287120,-0.329556,1,1
313,8,-0.667028,-0.087488,-0.400715,-0.251902,-0.284283,1,1
307,8,-0.673613,-0.009254,-0.325292,-0.311304,-0.302720,1,1
282,8,-0.600585,0.015031,-0.325017,-0.287188,-0.199147,1,1
295,8,-0.558028,0.025953,-0.269813,-0.267029,-0.267673,1,1
309,8,-0.630996,-0.056653,-0.300016,-0.334912,-0.361864,1,1
316,8,-0.636548,-0.044214,-0.307880,-0.345356,-0.306271,1,1
303,8,-0.690437,-0.099008,-0.417338,-0.431856,-0.288797,1,1
308,8,-0.597496,-0.073547,-0.363226,-0.323566,-0.356235,1,1
314,8,-0.648705,-0.110477,-0.406372,-0.282802,-0.367072,1,1
319,8,-0.594663,-0.026581,-0.310851,-0.432411,-0.321823,1,1
311,8,-0.552193,-0.008616,-0.261434,-0.389221,-0.350778,1,1
292,8,-0.448502,0.044062,-0.276938,-0.298644,-0.245497,1,0
310,8,-0.652389,-0.078443,-0.327397,-0.309531,-0.300287,1,1
291,8,-0.571140,-0.036163,-0.366589,-0.229547,-0.282475,1,1
302,8,-0.670833,-0.110886,-0.330172,-0.409965,-0.353050,1,1
294,8,-0.587237,-0.115211,-0.315761,-0.263977,-0.306865,1,1
318,8,-0.734644,-0.118100,-0.338455,-0.336473,-0.231950,0,1
286,8,-0.622955,-0.064447,-0.205638,-0.263707,-0.231609,1,1
301,8,-0.589253,-0.051465,-0.357630,-0.339795,-0.256472,1,1
290,8,-0.555330,-0.004512,-0.341544,-0.346146,-0.311721,1,1
304,8,-0.580176,-0.191908,-0.337117,-0.366734,-0.224877,0,1
281,8,-0.574218,0.056822,-0.388660,-0.242723,-0.229348,1,0
299,8,-0.552135,0.095750,-0.352518,-0.290185,-0.311139,1,0
287,8,-0.602991,0.003524,-0.324552,-0.293202,-0.262675,1,1
305,8,-0.520841,-0.039229,-0.350276,-0.408758,-0.296903,1,1
285,8,-0.594105,-0.041079,-0.287757,-0.257376,-0.327602,1,1
315,8,-0.714153,-0.028053,-0.399151,-0.234100,-0.337483,1,1
351,9,-0.625429,-0.148348,-0.290620,-0.338248,-0.220297,1,1
348,9,-0.595965,-0.094936,-0.338039,-0.340921,-0.243058,1,1
334,9,-0.537845,-0.072240,-0.347636,-0.272353,-0.277994,1,1
331,9,-0.642426,0.028740,-0.274281,-0.228843,-0.288947,1,1
327,9,-0.639332,-0.053958,-0.294942,-0.243261,-0.224720,1,1
353,9,-0.577155,-0.051325,-0.296703,-0.402194,-0.261786,1,1
345,9,-0.636098,-0.105637,-0.298626,-0.205833,-0.251509,1,1
342,9,-0.602067,-0.176742,-0.339389,-0.364075,-0.255261,0,1
346,9,-0.595491,-0.016278,-0.329997,-0.351218,-0.378191,1,1
338,9,-0.543145,-0.029077,-0.252515,-0.312639,-0.235506,1,1
332,9,-0.590984,-0.071740,-0.276403,-0.258883,-0.243109,1,1
349,9,-0.624397,-0.034317,-0.322476,-0.309245,-0.283788,1,1
333,9,-0.619414,0.049983,-0.385764,-0.319539,-0.256292,1,1
329,9,-0.526913,-0.029019,-0.278863,-0.200926,-0.214895,1,1
355,9,-0.578150,-0.068237,-0.370294,-0.324747,-0.242188,1,1
357,9,-0.630717,-0.089326,-0.356471,-0.388769,-0.311833,1,1
347,9,-0.590692,-0.040082,-0.312694,-0.372470,-0.289437,1,1
340,9,-0.664637,-0.148270,-0.379497,-0.245384,-0.240026,0,1
324,9,-0.607658,0.055393,-0.214497,-0.286748,-0.242758,1,1
337,9,-0.579218,-0.037455,-0.390905,-0.188545,-0.080306,1,1
341,9,-0.593908,-0.089620,-0.368874,-0.294501,-0.304417,1,1
320,9,-0.615993,0.114163,-0.342472,-0.283580,-0.334619,1,0
350,9,-0.682128,0.041731,-0.290556,-0.273542,-0.318226,1,1
358,9,-0.657597,-0.077740,-0.365162,-0.282131,-0.337619,1,1
343,9,-0.615770,0.014076,-0.380579,-0.333512,-0.319616,1,1
326,9,-0.576640,-0.032044,-0.305041,-0.213185,-0.357217,1,1
322,9,-0.593644,0.027784,-0.329707,-0.378973,-0.298817,1,1
339,9,-0.581197,-0.020552,-0.241428,-0.272011,-0.259192,1,1
330,9,-0.538733,0.019113,-0.263396,-0.234613,-0.199429,1,1
359,9,-0.633102,-0.099730,-0.403096,-0.269791,-0.311138,1,1
336,9,-0.444866,0.115875,-0.222039,-0.250958,-0.296760,1,0
344,9,-0.597804,-0.022399,-0.330199,-0.313536,-0.270537,1,1
352,9,-0.588401,-0.160837,-0.389796,-0.370199,-0.275823,1,1
321,9,-0.530851,0.034037,-0.325849,-0.340839,-0.215863,1,1
328,9,-0.597981,-0.035617,-0.263645,-0.363175,-0.182453,1,1
325,9,-0.590464,-0.036907,-0.281559,-0.279544,-0.299404,1,1
356,9,-0.680474,-0.157950,-0.302830,-0.233245,-0.344323,0,1
335,9,-0.486713,0.036214,-0.281972,-0.220517,-0.170308,1,0
354,9,-0.615235,-0.164092,-0.341699,-0.404177,-0.371454,0,1
323,9,-0.611293,-0.043758,-0.230073,-0.285706,-0.321040,1,1
380,10,-0.588706,-0.058898,-0.318164,-0.264167,-0.312548,1,1
378,10,-0.625768,-0.013032,-0.300011,-0.148915,-0.237905,1,1
388,10,-0.518113,-0.012093,-0.250929,-0.342361,-0.221336,1,1
397,10,-0.547763,-0.093071,-0.402734,-0.273571,-0.291646,1,1
361,10,-0.501656,-0.036588,-0.358777,-0.296227,-0.253938,1,1
389,10,-0.692555,-0.163041,-0.266044,-0.322615,-0.302333,0,1
376,10,-0.525187,0.054285,-0.341604,-0.200413,-0.212222,1,1
398,10,-0.501551,0.035359,-0.281875,-0.313048,-0.355517,1,1
384,10,-0.582743,-0.044247,-0.359191,-0.331923,-0.288969,1,1
391,10,-0.493920,-0.037968,-0.260281,-0.367440,-0.199097,1,1
366,10,-0.671010,-0.086804,-0.238841,-0.289339,-0.263394,1,1
390,10,-0.584666,-0.015945,-0.289658,-0.250128,-0.273838,1,1
395,10,-0.520268,-0.080947,-0.312911,-0.196418,-0.295002,1,1
386,10,-0.646789,-0.105517,-0.314683,-0.234483,-0.300502,1,1
379,10,-0.433236,-0.075737,-0.256945,-0.236138,-0.288455,1,1
374,10,-0.538305,-0.092231,-0.297966,-0.258410,-0.185699,1,1
373,10,-0.555977,0.037393,-0.304286,-0.290206,-0.225602,1,1
382,10,-0.543800,-0.095885,-0.257351,-0.172879,-0.187759,1,1
394,10,-0.505629,-0.071244,-0.322550,-0.281885,-0.271657,1,1
365,10,-0.511700,-0.027232,-0.328519,-0.264881,-0.259982,1,1
369,10,-0.583351,-0.002416,-0.298308,-0.302057,-0.203938,1,1
364,10,-0.573304,0.050328,-0.279590,-0.212022,-0.229680,1,1
399,10,-0.562696,-0.014968,-0.307158,-0.239805,-0.197383,1,1
383,10,-0.512630,-0.178585,-0.303496,-0.328207,-0.344643,0,1
381,10,-0.528797,-0.088713,-0.300731,-0.278579,-0.261039,1,1
385,10,-0.573233,-0.100823,-0.306496,-0.312845,-0.186200,1,1
372,10,-0.518248,-0.008132,-0.222541,-0.303034,-0.336636,1,1
396,10,-0.598204,-0.141369,-0.281155,-0.324680,-0.348859,1,1
368,10,-0.708316,0.050074,-0.270099,-0.273213,-0.338374,1,0
362,10,-0.570366,-0.075096,-0.303924,-0.314143,-0.255604,1,1
387,10,-0.452461,-0.046716,-0.325650,-0.213782,-0.205854,1,1
375,10,-0.544143,-0.045156,-0.260824,-0.259316,-0.260919,1,1
367,10,-0.626484,0.045015,-0.349920,-0.288535,-0.215449,1,1
363,10,-0.534485,-0.039770,-0.304817,-0.295008,-0.222247,1,1
360,10,-0.510824,-0.059398,-0.313373,-0.220263,-0.243312,1,1
393,10,-0.528635,-0.085498,-0.306922,-0.320685,-0.314989,1,1
371,10,-0.582491,-0.059572,-0.226050,-0.224811,-0.229534,1,1
370,10,-0.566570,0.000027,-0.346874,-0.321694,-0.247515,1,1
392,10,-0.539965,-0.001465,-0.424774,-0.271624,-0.187100,1,1
377,10,-0.546692,0.075731,-0.324154,-0.262260,-0.306485,1,0
433,11,-0.636503,-0.148887,-0.301538,-0.296107,-0.271409,0,1
417,11,-0.512194,-0.163297,-0.208852,-0.271872,-0.151291,1,1
421,11,-0.523383,-0.144189,-0.313083,-0.419810,-0.265543,1,1
402,11,-0.503878,-0.028660,-0.180831,-0.165981,-0.252915,1,1
415,11,-0.393322,-0.003466,-0.205274,-0.304924,-0.103160,1,0
425,11,-0.540217,-0.084004,-0.347460,-0.221151,-0.266158,1,1
428,11,-0.585499,-0.154429,-0.396228,-0.292146,-0.324972,0,1
411,11,-0.548788,0.011977,-0.299393,-0.150146,-0.213853,1,1
434,11,-0.559754,-0.168946,-0.263473,-0.275547,-0.312767,0,1
420,11,-0.459514,-0.102776,-0.310737,-0.292574,-0.272188,1,1
408,11,-0.505659,-0.011407,-0.299611,-0.203571,-0.169219,1,1
426,11,-0.585895,-0.063457,-0.277407,-0.220038,-0.286983,1,1
435,11,-0.569732,-0.188401,-0.355605,-0.297752,-0.238887,0,1
407,11,-0.549232,0.115349,-0.341927,-0.245764,-0.271795,1,0
404,11,-0.427826,-0.012084,-0.270657,-0.247245,-0.216629,1,1
410,11,-0.551623,0.079737,-0.304394,-0.268932,-0.212311,1,0
427,11,-0.507407,-0.063397,-0.317109,-0.289212,-0.169940,1,1
424,11,-0.564803,-0.038928,-0.316381,-0.264379,-0.295647,1,1
401,11,-0.540927,0.070212,-0.335257,-0.180076,-0.230083,1,0
403,11,-0.429704,0.040854,-0.142155,-0.161077,-0.206503,1,0
405,11,-0.441150,-0.017138,-0.212551,-0.233659,-0.235445,1,1
414,11,-0.414278,0.029686,-0.226608,-0.262808,-0.260914,1,0
439,11,-0.507074,-0.022959,-0.254496,-0.286542,-0.204920,1,1
419,11,-0.516664,-0.054599,-0.160396,-0.301995,-0.259141,1,1
413,11,-0.488248,-0.078901,-0.290652,-0.113692,-0.227157,1,1
400,11,-0.499344,-0.071480,-0.393006,-0.271972,-0.123239,1,1
432,11,-0.670789,-0.119190,-0.341717,-0.408035,-0.214552,0,1
412,11,-0.575692,0.059753,-0.348586,-0.292024,-0.158686,1,1
406,11,-0.536089,0.037885,-0.288258,-0.137766,-0.243345,1,1
423,11,-0.586082,-0.101848,-0.380677,-0.275942,-0.265860,1,1
422,11,-0.585458,-0.087661,-0.282925,-0.303299,-0.335835,1,1
429,11,-0.562331,-0.021161,-0.243260,-0.279464,-0.283977,1,1
431,11,-0.492090,-0.173363,-0.336306,-0.362527,-0.316754,0,1
438,11,-0.558321,-0.083333,-0.299622,-0.266168,-0.314879,1,1
418,11,-0.462245,0.034844,-0.307146,-0.229187,-0.260528,1,1
416,11,-0.468459,-0.029095,-0.209692,-0.295573,-0.219669,1,1
436,11,-0.414114,-0.141142,-0.276968,-0.225766,-0.332205,0,1
437,11,-0.622376,-0.059611,-0.348666,-0.261448,-0.298961,1,1
430,11,-0.540780,-0.091690,-0.407441,-0.289966,-0.374152,1,1
409,11,-0.528748,0.005100,-0.254659,-0.282369,-0.150872,1,1
447,12,-0.498405,-0.037318,-0.115405,-0.200850,-0.237509,1,1
456,12,-0.440360,-0.036653,-0.226475,-0.243598,-0.207258,1,1
473,12,-0.555548,-0.112205,-0.329093,-0.219108,-0.226262,1,1
449,12,-0.409728,-0.047411,-0.255463,-0.153655,-0.187108,1,1
461,12,-0.595111,-0.062233,-0.312647,-0.374623,-0.310151,1,1
451,12,-0.466192,-0.034029,-0.270328,-0.122319,-0.170185,1,1
462,12,-0.483150,-0.099589,-0.327490,-0.340313,-0.206413,1,1
465,12,-0.556667,-0.144962,-0.286801,-0.338269,-0.254485,0,1
467,12,-0.476075,-0.125225,-0.307340,-0.247411,-0.227363,1,1
469,12,-0.448239,-0.119638,-0.272897,-0.353381,-0.296389,1,1
452,12,-0.487534,-0.029767,-0.309729,-0.120588,-0.221054,1,1
450,12,-0.515387,-0.059528,-0.212464,-0.126918,-0.181563,1,1
448,12,-0.457055,-0.105505,-0.188903,-0.245030,-0.148626,1,1
443,12,-0.429553,0.065643,-0.194669,-0.154950,-0.221084,1,0
468,12,-0.433866,-0.143900,-0.271725,-0.296161,-0.349500,1,1
476,12,-0.517013,0.008191,-0.387630,-0.290104,-0.285667,1,1
478,12,-0.549656,-0.039702,-0.246113,-0.243005,-0.195114,1,1
457,12,-0.508092,0.011772,-0.173770,-0.194202,-0.230505,1,1
454,12,-0.407732,0.023786,-0.278519,-0.203240,-0.259958,1,0
442,12,-0.507887,-0.002836,-0.198713,-0.220135,-0.160147,1,1
460,12,-0.461836,-0.069427,-0.309667,-0.328361,-0.245594,1,1
472,12,-0.550241,-0.083494,-0.257866,-0.279316,-0.214180,1,1
464,12,-0.554660,0.000729,-0.322501,-0.286115,-0.247837,1,1
458,12,-0.529555,-0.051312,-0.166876,-0.281537,-0.132190,1,1
477,12,-0.498107,-0.067214,-0.278756,-0.256359,-0.287699,1,1
441,12,-0.480649,-0.055080,-0.198384,-0.247879,-0.230883,1,1
474,12,-0.506851,-0.097079,-0.318691,-0.215178,-0.216722,1,1
440,12,-0.483655,-0.066226,-0.332552,-0.200338,-0.197292,1,1
445,12,-0.482702,0.011475,-0.154884,-0.305690,-0.218541,1,1
475,12,-0.584517,-0.056453,-0.293074,-0.288672,-0.300162,1,1
463,12,-0.569660,-0.099183,-0.316050,-0.179094,-0.305414,1,1
446,12,-0.428500,-0.004924,-0.144328,-0.121069,-0.127523,1,1
479,12,-0.527926,-0.086851,-0.321353,-0.245697,-0.218171,1,1
453,12,-0.441178,-0.031771,-0.273746,-0.180420,-0.149729,1,1
470,12,-0.483268,-0.136081,-0.323765,-0.338991,-0.163626,1,1
459,12,-0.502563,-0.076658,-0.176852,-0.184866,-0.190962,1,1
471,12,-0.445251,-0.120940,-0.291773,-0.250299,-0.179576,1,1
466,12,-0.547227,-0.087455,-0.353785,-0.323172,-0.242835,1,1
444,12,-0.412722,-0.096207,-0.202721,-0.146989,-0.199643,1,1
455,12,-0.477927,0.017913,-0.258372,-0.218408,-0.177043,1,1
483,13,-0.346595,-0.003413,-0.219110,-0.192728,-0.125383,1,1
513,13,-0.525260,-0.114700,-0.383865,-0.155753,-0.180642,1,1
514,13,-0.548385,-0.066776,-0.276577,-0.209856,-0.273434,1,1
486,13,-0.592867,-0.022652,-0.251469,-0.251488,-0.152522,1,1
493,13,-0.462650,-0.042415,-0.308857,-0.195660,-0.212682,1,1
506,13,-0.418360,-0.130287,-0.303007,-0.243209,-0.224430,1,1
481,13,-0.475375,-0.000517,-0.185028,-0.260636,-0.184429,1,1
487,13,-0.528262,0.037871,-0.226820,-0.138054,-0.230432,1,1
517,13,-0.436241,-0.117605,-0.244602,-0.208833,-0.141838,1,1
516,13,-0.506580,-0.123625,-0.266636,-0.269268,-0.297902,1,1
485,13,-0.462792,-0.053927,-0.186041,-0.183450,-0.127578,1,1
484,13,-0.493296,-0.072958,-0.302748,-0.209766,-0.229104,1,1
511,13,-0.413648,-0.153567,-0.300486,-0.301297,-0.159375,1,1
512,13,-0.458197,-0.178048,-0.192273,-0.282124,-0.205309,0,1
491,13,-0.359202,-0.008660,-0.238997,-0.260121,-0.251778,1,1
496,13,-0.428289,-0.088026,-0.091472,-0.229641,-0.143847,1,1
501,13,-0.431524,-0.087457,-0.273736,-0.215856,-0.189472,1,1
504,13,-0.487884,-0.086430,-0.321855,-0.291439,-0.194366,1,1
505,13,-0.423942,-0.225858,-0.293649,-0.313225,-0.242197,0,1
488,13,-0.512461,-0.005332,-0.308681,-0.111538,-0.205693,1,1
518,13,-0.344440,-0.111013,-0.179939,-0.274313,-0.174732,1,1
489,13,-0.486771,-0.086351,-0.246418,-0.100454,-0.149847,1,1
510,13,-0.488345,-0.076196,-0.254262,-0.271609,-0.192940,1,1
494,13,-0.410885,-0.001965,-0.231984,-0.120715,-0.202577,1,1
500,13,-0.551699,-0.049276,-0.278760,-0.167004,-0.161898,1,1
502,13,-0.488934,-0.148135,-0.276168,-0.222730,-0.254398,1,1
519,13,-0.522462,-0.030228,-0.168337,-0.238981,-0.256237,1,1
492,13,-0.480487,-0.010180,-0.330070,-0.120708,-0.102139,1,1
498,13,-0.423436,-0.005445,-0.281860,-0.154198,-0.160549,1,1
515,13,-0.461589,-0.020533,-0.263600,-0.264407,-0.221377,1,1
509,13,-0.413578,-0.124572,-0.200081,-0.212390,-0.231565,1,1
490,13,-0.508763,-0.015675,-0.277398,-0.172570,-0.190145,1,1
503,13,-0.504562,-0.060923,-0.343319,-0.233345,-0.290921,1,1
499,13,-0.414490,-0.012487,-0.156012,-0.210447,-0.221099,1,1
497,13,-0.518479,-0.029042,-0.191061,-0.180223,-0.068584,1,1
482,13,-0.454031,0.010401,-0.261156,-0.195958,-0.132237,1,1
507,13,-0.429456,-0.078544,-0.290812,-0.192102,-0.185025,1,1
495,13,-0.446394,0.050857,-0.130296,-0.251662,-0.312422,1,1
508,13,-0.443610,-0.031646,-0.240111,-0.243147,-0.278293,1,1
480,13,-0.430348,0.059927,-0.283354,-0.205267,-0.150966,1,1
539,14,-0.332847,-0.039686,-0.225986,-0.213222,-0.158667,1,1
531,14,-0.443861,-0.067592,-0.222259,-0.243901,-0.160584,1,1
535,14,-0.413790,-0.039046,-0.240327,-0.130846,-0.214035,1,1
549,14,-0.498444,-0.146201,-0.209719,-0.187072,-0.256130,0,1
550,14,-0.482324,-0.005644,-0.189453,-0.285091,-0.177929,1,1
520,14,-0.356420,-0.020938,-0.241162,-0.136429,-0.196675,1,1
555,14,-0.435911,-0.069196,-0.164607,-0.194737,-0.268670,1,1
544,14,-0.438619,-0.104974,-0.308774,-0.228024,-0.268663,1,1
540,14,-0.414942,-0.152055,-0.330589,-0.213086,-0.179964,1,1
533,14,-0.449016,0.020835,-0.231860,-0.153381,-0.131346,1,1
548,14,-0.387947,-0.120418,-0.302084,-0.201430,-0.231244,1,1
542,14,-0.381335,-0.086432,-0.236758,-0.166205,-0.154782,1,1
552,14,-0.407319,-0.082864,-0.280866,-0.264347,-0.013564,1,1
554,14,-0.432674,-0.003417,-0.209132,-0.163514,-0.204541,1,1
547,14,-0.387087,-0.045695,-0.208735,-0.227494,-0.204128,1,1
559,14,-0.449151,-0.085206,-0.298039,-0.198621,-0.206544,1,1
543,14,-0.362534,-0.152341,-0.286214,-0.211453,-0.156018,1,1
532,14,-0.490843,0.013169,-0.204933,-0.190799,-0.216944,1,1
525,14,-0.356096,0.101078,-0.214683,-0.136716,-0.115728,1,0
538,14,-0.391939,-0.002071,-0.271809,-0.158646,-0.137823,1,1
534,14,-0.417487,-0.000319,-0.218798,-0.125793,-0.198144,1,1
551,14,-0.361231,-0.087312,-0.223863,-0.182431,-0.237973,1,1
529,14,-0.438556,-0.150164,-0.195469,-0.109984,-0.122582,1,1
546,14,-0.414024,-0.078344,-0.272827,-0.186519,-0.263400,1,1
521,14,-0.404985,-0.090392,-0.209619,-0.190696,-0.111354,1,1
545,14,-0.338388,-0.047190,-0.274181,-0.237555,-0.147317,1,1
556,14,-0.387261,-0.116076,-0.281892,-0.293461,-0.258517,1,1
530,14,-0.489809,0.044109,-0.154246,-0.196110,-0.252438,1,1
523,14,-0.347475,-0.058867,-0.120436,-0.206735,-0.208735,1,1
558,14,-0.386337,-0.048879,-0.167412,-0.287928,-0.143763,1,1
522,14,-0.376514,0.031309,-0.186976,-0.187310,-0.098184,1,1
537,14,-0.401790,0.094947,-0.255224,-0.203003,-0.163925,1,0
541,14,-0.342723,-0.087808,-0.241841,-0.237366,-0.281072,1,1
528,14,-0.403242,0.007807,-0.164995,-0.156962,-0.064777,1,1
536,14,-0.448430,0.002507,-0.169096,-0.161914,-0.075056,1,1
524,14,-0.341546,-0.003860,-0.179660,-0.172670,-0.185695,1,1
557,14,-0.408669,-0.052812,-0.306273,-0.201905,-0.161467,1,1
553,14,-0.514365,-0.118104,-0.250876,-0.213504,-0.157324,1,1
527,14,-0.470635,0.002420,-0.252273,-0.270565,-0.231484,1,1
526,14,-0.537825,0.026816,-0.161808,-0.273939,-0.116835,1,0
589,15,-0.375898,-0.135175,-0.262264,-0.123741,-0.255766,1,1
569,15,-0.355830,-0.106311,-0.182585,-0.153581,-0.087341,1,1
592,15,-0.392505,-0.153491,-0.283932,-0.194781,-0.216404,1,1
570,15,-0.331668,0.021418,-0.197312,-0.212362,-0.252799,1,1
593,15,-0.413049,-0.074065,-0.214114,-0.160382,-0.176559,1,1
563,15,-0.347927,-0.108298,-0.140176,-0.126142,-0.185990,1,1
564,15,-0.294533,0.001534,-0.209511,-0.157443,-0.160160,1,1
588,15,-0.411518,-0.065112,-0.211347,-0.099477,-0.133382,1,1
567,15,-0.458401,-0.028233,-0.172632,-0.099322,-0.023249,1,1
584,15,-0.329560,-0.094747,-0.222158,-0.214669,-0.169928,1,1
565,15,-0.341547,-0.033234,-0.224810,-0.206505,-0.233334,1,1
577,15,-0.436199,-0.053567,-0.216756,-0.123542,-0.049772,1,1
590,15,-0.404546,-0.096762,-0.273092,-0.095779,-0.253048,1,1
599,15,-0.427988,-0.036272,-0.248793,-0.223175,-0.259525,1,1
576,15,-0.351551,-0.030524,-0.170667,-0.124635,-0.163760,1,1
594,15,-0.298945,-0.139640,-0.206670,-0.203213,-0.143402,1,1
574,15,-0.370834,0.001727,-0.156510,-0.189822,-0.175950,1,1
580,15,-0.405521,-0.153107,-0.281492,-0.292072,-0.226063,1,1
560,15,-0.252998,0.012038,-0.181247,-0.091384,-0.027362,1,0
598,15,-0.296147,-0.099100,-0.264379,-0.110110,-0.226844,1,1
596,15,-0.439128,-0.074633,-0.275799,-0.302447,-0.249453,1,1
571,15,-0.311414,-0.034773,-0.185649,-0.222090,-0.101631,1,1
595,15,-0.420172,-0.133123,-0.240296,-0.229383,-0.217010,1,1
575,15,-0.522334,-0.006144,-0.259185,-0.185352,-0.155609,1,0
572,15,-0.386825,-0.083940,-0.154097,-0.147411,-0.171959,1,1
568,15,-0.326581,-0.029820,-0.171856,-0.186323,-0.132848,1,1
597,15,-0.435627,-0.112330,-0.296456,-0.165335,-0.123989,1,1
562,15,-0.357605,-0.056384,-0.195668,-0.119513,-0.099208,1,1
586,15,-0.328194,-0.080678,-0.211254,-0.233568,-0.107172,1,1
587,15,-0.390692,-0.175589,-0.231792,-0.196758,-0.144726,0,1
582,15,-0.360712,-0.115687,-0.272493,-0.185430,-0.168319,1,1
561,15,-0.421542,-0.019584,-0.212995,-0.183616,-0.194510,1,1
573,15,-0.350724,-0.013068,-0.170116,-0.106021,-0.159851,1,1
578,15,-0.351504,0.058370,-0.273176,-0.158846,-0.064082,1,1
583,15,-0.316953,-0.022568,-0.303086,-0.243025,-0.185431,1,1
581,15,-0.389745,0.027600,-0.230950,-0.222149,-0.151152,1,1
591,15,-0.350532,-0.054930,-0.196787,-0.095597,-0.189049,1,1
579,15,-0.419987,0.015827,-0.214282,-0.218172,-0.177420,1,1
585,15,-0.424208,-0.050372,-0.308645,-0.094336,-0.147996,1,1
566,15,-0.419072,0.017006,-0.233166,-0.231118,-0.109245,1,1
614,16,-0.366308,-0.087613,-0.166537,-0.119509,-0.139567,1,1
609,16,-0.322734,-0.010547,-0.195280,-0.096466,-0.144641,1,1
602,16,-0.324469,-0.034277,-0.137369,-0.201297,-0.195762,1,1
607,16,-0.346792,-0.005754,-0.161920,-0.249561,-0.079374,1,1
600,16,-0.313473,-0.009299,-0.154014,-0.161852,-0.092128,1,1
632,16,-0.342816,-0.039009,-0.264781,-0.196589,-0.228414,1,1
627,16,-0.399802,-0.123092,-0.276739,-0.235959,-0.121440,1,1
630,16,-0.314848,-0.098715,-0.275054,-0.134486,-0.232017,1,1
625,16,-0.269822,-0.160510,-0.165456,-0.235570,-0.091226,0,1
605,16,-0.329074,0.013290,-0.199572,-0.226315,-0.176120,1,1
631,16,-0.356712,-0.095442,-0.222521,-0.227323,-0.259155,1,1
608,16,-0.310261,-0.032315,-0.237516,-0.133764,-0.131059,1,1
628,16,-0.309583,-0.084797,-0.224719,-0.191332,-0.126093,1,1
616,16,-0.353901,-0.117821,-0.183874,-0.117826,-0.145613,1,1
611,16,-0.328949,0.039806,-0.207754,-0.159975,-0.094903,1,1
634,16,-0.411103,-0.088749,-0.270920,-0.229549,-0.171809,1,1
620,16,-0.343582,-0.082774,-0.245291,-0.183182,-0.224211,1,1
622,16,-0.392805,-0.125805,-0.261253,-0.129493,-0.170692,1,1
638,16,-0.366076,-0.025077,-0.271644,-0.151756,-0.144037,1,1
606,16,-0.324775,-0.058883,-0.196239,-0.133292,-0.125955,1,1
629,16,-0.364472,-0.036498,-0.198717,-0.192657,-0.199602,1,1
618,16,-0.251096,-0.050961,-0.264634,-0.070524,-0.060527,1,1
612,16,-0.373630,0.096718,-0.147238,-0.166735,-0.046304,1,0
639,16,-0.390061,-0.056870,-0.169272,-0.240013,-0.131364,1,1
621,16,-0.311070,-0.169168,-0.261845,-0.186991,-0.222067,0,1
615,16,-0.314742,0.060030,-0.206094,-0.184583,-0.135239,1,0
626,16,-0.346953,-0.071517,-0.271840,-0.191646,-0.287616,1,1
637,16,-0.297574,-0.082063,-0.174003,-0.206013,-0.132723,1,1
604,16,-0.366757,0.016532,-0.106393,-0.130046,-0.101438,1,1
601,16,-0.431475,-0.040952,-0.164129,-0.128468,-0.232297,1,1
617,16,-0.277736,-0.063759,-0.219794,-0.242000,-0.114165,1,1
613,16,-0.327175,0.052608,-0.138590,-0.162923,-0.166318,1,1
635,16,-0.379296,-0.109558,-0.306824,-0.205243,-0.079392,1,1
623,16,-0.319043,-0.146351,-0.132088,-0.215499,-0.161302,1,1
610,16,-0.325989,-0.052938,-0.175327,-0.133077,-0.151260,1,1
633,16,-0.450613,-0.109867,-0.240734,-0.246101,-0.181735,1,1
619,16,-0.272136,-0.025053,-0.213340,-0.127632,-0.077921,1,1
603,16,-0.410912,-0.064113,-0.288446,-0.194060,-0.120495,1,1
624,16,-0.328187,-0.064705,-0.300603,-0.111843,-0.157584,1,1
636,16,-0.316007,-0.084909,-0.212050,-0.174733,-0.173023,1,1
644,17,-0.373861,-0.064153,-0.171759,-0.150202,-0.099024,1,1
679,17,-0.314641,-0.094126,-0.274048,-0.205752,-0.130698,1,1
650,17,-0.316488,-0.043444,-0.113898,-0.171821,-0.144898,1,1
642,17,-0.323855,-0.083613,-0.208795,-0.177781,-0.146654,1,1
646,17,-0.345371,0.093479,-0.090344,-0.154754,-0.103526,1,0
648,17,-0.228167,-0.091198,-0.182163,-0.211015,-0.172932,1,1
647,17,-0.358194,0.060601,-0.102719,-0.196054,-0.079142,1,1
660,17,-0.422360,-0.058442,-0.157828,-0.163976,-0.061236,1,1
671,17,-0.313910,-0.159883,-0.250610,-0.217385,-0.076802,1,1
678,17,-0.344745,-0.113480,-0.221571,-0.193103,-0.075630,1,1
657,17,-0.405746,0.080852,-0.224854,-0.140311,-0.167156,1,0
659,17,-0.409963,0.080091,-0.152394,-0.140701,-0.098857,1,0
677,17,-0.358796,-0.117585,-0.165452,-0.231695,-0.158092,1,1
665,17,-0.315820,-0.050891,-0.275643,-0.231648,-0.193071,1,1
640,17,-0.305259,-0.035130,-0.193129,-0.101350,-0.070719,1,1
667,17,-0.353984,-0.080729,-0.281908,-0.221318,-0.108895,1,1
662,17,-0.242271,-0.000131,-0.239103,-0.190499,-0.155995,1,1
676,17,-0.335103,-0.143788,-0.265610,-0.217088,-0.161777,1,1
652,17,-0.430970,0.013784,-0.211467,-0.250998,-0.076303,1,1
675,17,-0.318521,-0.110011,-0.171224,-0.178980,-0.222834,1,1
645,17,-0.372718,-0.081415,-0.187691,-0.163177,-0.197219,1,1
653,17,-0.436988,0.040417,-0.144027,-0.209103,-0.215213,1,0
656,17,-0.322678,0.000374,-0.201376,-0.195923,-0.054542,1,1
655,17,-0.306067,-0.022982,-0.152318,-0.117217,-0.043029,1,1
668,17,-0.346569,-0.104426,-0.230396,-0.163482,-0.154348,1,1
670,17,-0.384005,-0.034900,-0.232504,-0.172427,-0.191698,1,1
663,17,-0.299787,-0.018964,-0.200592,-0.211417,-0.042129,1,1
673,17,-0.356859,-0.120649,-0.266979,-0.209152,-0.132096,1,1
641,17,-0.408819,0.005101,-0.216369,-0.260856,-0.158953,1,1
672,17,-0.342110,-0.148591,-0.209221,-0.143071,-0.116835,1,1
643,17,-0.282161,0.020513,-0.159999,-0.075855,-0.180822,1,1
649,17,-0.388068,0.004285,-0.170549,-0.019190,-0.109492,1,1
664,17,-0.336014,-0.107778,-0.203101,-0.214819,-0.060527,1,1
669,17,-0.339144,-0.123797,-0.253391,-0.216791,-0.155391,1,1
674,17,-0.317209,-0.048912,-0.249186,-0.183439,-0.234948,1,1
658,17,-0.409716,-0.053324,-0.218625,-0.120208,-0.131106,1,1
661,17,-0.256811,-0.076181,-0.216339,-0.149167,-0.150842,1,1
666,17,-0.394463,-0.130110,-0.272488,-0.293463,-0.131799,1,1
651,17,-0.257698,0.070350,-0.235419,-0.170110,-0.148410,1,0
654,17,-0.284671,0.016568,-0.132735,-0.100740,-0.029586,1,1
713,18,-0.232697,-0.084887,-0.152429,-0.134697,-0.158872,1,1
712,18,-0.239639,-0.044169,-0.210001,-0.161158,-0.233330,1,1
693,18,-0.243078,-0.111687,-0.142137,-0.051108,-0.184472,1,1
705,18,-0.238191,-0.222848,-0.216865,-0.193030,-0.075383,0,1
689,18,-0.388723,-0.001386,-0.200624,-0.101146,-0.153649,1,1
684,18,-0.327698,0.000916,-0.087439,-0.058205,-0.084772,1,1
695,18,-0.310764,0.018581,-0.134682,-0.192219,0.003005,1,1
707,18,-0.311517,-0.109799,-0.228926,-0.184270,-0.184497,1,1
696,18,-0.347622,-0.029992,-0.218146,-0.075958,-0.170678,1,1
718,18,-0.305271,-0.076373,-0.220641,-0.131177,-0.233445,1,1
685,18,-0.323633,0.085601,-0.188199,-0.194415,-0.135583,1,0
692,18,-0.353977,-0.116533,-0.190982,-0.156586,-0.151761,1,1
701,18,-0.339619,-0.045143,-0.205954,-0.178510,-0.152902,1,1
711,18,-0.296849,-0.031294,-0.178839,-0.169704,-0.128008,1,1
691,18,-0.317344,0.005134,-0.170609,-0.085148,-0.105416,1,1
694,18,-0.326407,0.056873,-0.117480,-0.107867,-0.110179,1,1
698,18,-0.342090,-0.041963,-0.175245,-0.105395,-0.149322,1,1
686,18,-0.357947,0.064764,-0.137513,-0.129563,-0.140487,1,0
680,18,-0.335390,-0.029221,-0.176483,-0.127476,-0.117152,1,1
703,18,-0.252899,-0.063864,-0.229639,-0.152519,-0.122430,1,1
681,18,-0.321799,0.024343,-0.319600,-0.138924,-0.074821,1,1
714,18,-0.286003,-0.091403,-0.171504,-0.198177,-0.148645,1,1
687,18,-0.325330,-0.063800,-0.220073,-0.048537,-0.088131,1,1
683,18,-0.289753,0.007826,-0.258712,-0.020507,-0.030038,1,1
702,18,-0.277321,-0.120540,-0.225638,-0.116260,-0.147702,1,1
719,18,-0.375561,-0.038609,-0.207803,-0.215908,-0.065396,1,1
704,18,-0.288537,-0.055138,-0.114875,-0.171138,-0.128413,1,1
716,18,-0.334713,-0.015374,-0.204922,-0.181003,-0.113043,1,1
682,18,-0.300842,-0.080518,-0.182737,-0.106761,-0.109182,1,1
699,18,-0.311915,0.013979,-0.101409,-0.110977,-0.193769,1,1
710,18,-0.326025,-0.038947,-0.242592,-0.173443,-0.166133,1,1
715,18,-0.283956,-0.072979,-0.145587,-0.133420,-0.065244,1,1
708,18,-0.326960,-0.013656,-0.202477,-0.080137,-0.201483,1,1
706,18,-0.268853,-0.070779,-0.148867,-0.121675,-0.136428,1,1
690,18,-0.323565,0.017277,-0.291165,-0.148797,-0.008192,1,1
709,18,-0.378979,-0.071922,-0.222955,-0.195606,-0.166388,1,1
717,18,-0.264883,-0.171626,-0.244439,-0.239048,-0.126443,0,1
688,18,-0.379190,-0.082110,-0.145909,-0.209968,-0.253265,1,1
697,18,-0.345656,-0.021200,-0.154061,-0.117110,-0.097844,1,1
700,18,-0.342877,-0.100581,-0.173365,-0.134373,-0.140619,1,1
746,19,-0.300785,-0.120836,-0.212853,-0.130332,-0.117580,1,1
752,19,-0.264816,-0.027251,-0.292343,-0.122446,-0.072854,1,1
740,19,-0.237559,-0.077374,-0.157836,-0.131246,-0.136818,1,1
729,19,-0.291364,0.037256,-0.141065,-0.203197,-0.131220,1,1
724,19,-0.273995,-0.054870,-0.144961,-0.116639,-0.063194,1,1
759,19,-0.256129,-0.045438,-0.186015,-0.105703,-0.139489,1,1
734,19,-0.296487,-0.117558,-0.167643,-0.180141,-0.066331,1,1
757,19,-0.306790,-0.035290,-0.176656,-0.105034,-0.192381,1,1
727,19,-0.253327,-0.012549,-0.174005,-0.098902,-0.066857,1,1
730,19,-0.293751,-0.045465,-0.205167,-0.158072,-0.105152,1,1
737,19,-0.300297,-0.077591,-0.117413,-0.107993,-0.180624,1,1
728,19,-0.325965,-0.084714,-0.161158,-0.174164,-0.103345,1,1
741,19,-0.276794,-0.054669,-0.227860,-0.148214,-0.158255,1,1
758,19,-0.273380,-0.165512,-0.085609,-0.161155,-0.167103,0,1
749,19,-0.268284,-0.032967,-0.178005,-0.201018,-0.161680,1,1
742,19,-0.181561,-0.106807,-0.195964,-0.161388,-0.173254,1,1
754,19,-0.254857,0.009908,-0.245366,-0.165347,-0.077358,1,1
738,19,-0.270468,-0.068710,-0.118331,-0.132663,-0.076701,1,1
751,19,-0.186990,-0.139657,-0.266023,-0.186996,-0.136223,0,1
722,19,-0.258331,0.011304,-0.126134,-0.187951,-0.068242,1,1
726,19,-0.243240,0.073916,-0.106879,-0.068168,-0.083050,1,0
732,19,-0.273115,0.008902,-0.178555,-0.119352,-0.168024,1,1
745,19,-0.379706,-0.111434,-0.087232,-0.138064,-0.202315,1,1
755,19,-0.260745,-0.149789,-0.048966,-0.129938,-0.129453,1,1
735,19,-0.339176,-0.005751,-0.134595,-0.164277,-0.064488,1,1
753,19,-0.203108,-0.060492,-0.158746,-0.216981,-0.109792,1,1
750,19,-0.301061,-0.057232,-0.187237,-0.151016,-0.047978,1,1
743,19,-0.186148,-0.102172,-0.165017,-0.047973,-0.138560,1,1
744,19,-0.262450,-0.133376,-0.132121,-0.080119,-0.212608,1,1
731,19,-0.225602,-0.001851,-0.154473,-0.067958,-0.063209,1,1
720,19,-0.352174,0.052775,-0.241851,-0.144056,-0.077201,1,0
733,19,-0.256010,0.019722,-0.127580,-0.077177,-0.102006,1,1
721,19,-0.203846,0.068377,-0.146009,-0.144169,-0.052358,1,0
736,19,-0.307977,-0.075808,-0.030942,-0.148841,-0.078045,1,1
723,19,-0.245577,-0.010801,-0.122773,-0.171503,-0.114926,1,1
739,19,-0.246145,0.053359,-0.137009,-0.117812,-0.105639,1,1
747,19,-0.271531,-0.039376,-0.177068,-0.162582,-0.093159,1,1
748,19,-0.377427,-0.063922,-0.248646,-0.215598,-0.251045,1,1
756,19,-0.227603,-0.088813,-0.126860,-0.042869,-0.075054,1,1
725,19,-0.255827,0.057726,-0.110719,-0.153127,-0.063477,1,0
789,20,-0.280560,-0.045324,-0.166111,-0.141854,-0.017614,1,1
771,20,-0.184299,0.007215,-0.101631,-0.126389,-0.111697,1,1
790,20,-0.225402,-0.071797,-0.064338,-0.110647,-0.119239,1,1
767,20,-0.310524,0.025857,-0.178205,-0.164190,-0.000409,1,0
794,20,-0.262116,-0.120174,-0.144689,0.034080,-0.106664,1,1
763,20,-0.409638,-0.045308,-0.069147,-0.102717,-0.125408,1,0
769,20,-0.239621,0.109525,-0.130947,-0.099750,-0.117375,1,0
784,20,-0.201877,-0.111279,-0.149170,-0.185274,-0.120582,1,1
776,20,-0.298671,-0.005610,-0.082375,-0.110358,-0.105194,1,1
770,20,-0.291204,-0.032143,-0.046859,-0.147934,-0.030751,1,1
775,20,-0.281112,-0.051054,-0.127481,-0.111479,-0.108844,1,1
773,20,-0.209317,-0.034369,-0.163631,-0.112043,-0.113904,1,1
783,20,-0.325989,-0.116681,-0.085479,-0.165078,-0.128207,1,1
781,20,-0.236676,-0.110953,-0.158576,-0.073418,-0.153613,1,1
760,20,-0.212570,-0.024636,-0.177974,-0.123357,-0.090815,1,1
788,20,-0.255082,-0.016512,-0.107592,-0.105184,-0.110500,1,1
780,20,-0.181078,-0.104609,-0.215631,-0.197037,-0.157911,1,1
766,20,-0.288593,-0.083526,-0.137821,-0.134829,-0.047392,1,1
796,20,-0.170768,-0.068005,-0.113750,-0.078150,-0.051769,1,1
792,20,-0.294499,-0.076940,-0.279366,-0.194961,-0.070262,1,1
798,20,-0.199005,-0.139547,-0.226646,-0.148239,-0.066685,1,1
782,20,-0.207561,-0.104436,-0.105082,-0.125759,-0.122267,1,1
761,20,-0.177205,-0.071654,-0.200496,-0.130453,-0.065474,1,1
779,20,-0.306513,0.028231,-0.109992,-0.099125,-0.104490,1,0
777,20,-0.315048,-0.067601,-0.121718,-0.116045,-0.056612,1,1
786,20,-0.181354,-0.094961,-0.191672,-0.148001,-0.152128,1,1
774,20,-0.214439,-0.061970,-0.148995,-0.109260,-0.036567,1,1
778,20,-0.309361,-0.088857,-0.056414,-0.145020,-0.050967,1,1
787,20,-0.252030,-0.114581,-0.146627,-0.132117,-0.157188,1,1
768,20,-0.196215,-0.001670,-0.080557,-0.126622,-0.002334,1,1
764,20,-0.302603,0.023483,-0.159401,-0.165366,-0.002120,1,1
762,20,-0.241560,0.000671,-0.124607,-0.091004,0.023730,1,1
795,20,-0.275799,-0.087786,-0.091413,-0.189733,-0.107922,1,1
785,20,-0.172285,0.058696,-0.186166,-0.124325,-0.090023,1,1
797,20,-0.184996,-0.129272,-0.198488,-0.234335,-0.093666,1,1
793,20,-0.199695,-0.069611,-0.183917,-0.139687,-0.085347,1,1
791,20,-0.185905,-0.146410,-0.257332,-0.215774,-0.076714,0,1
765,20,-0.249444,0.018770,-0.150327,-0.127301,-0.088577,1,1
772,20,-0.204028,-0.092562,-0.137971,-0.068343,-0.026938,1,1
799,20,-0.266396,-0.046485,-0.145055,-0.196329,-0.084338,1,1