@relation stream_gen

@attribute global_id NUMERIC
@attribute timestamp NUMERIC
@attribute f1 NUMERIC
@attribute f2 NUMERIC
@attribute f3 NUMERIC
@attribute f4 NUMERIC
@attribute f5 NUMERIC
@attribute class_0 {0,1}
@attribute class_1 {0,1}

@data
13,1,-0.708808,-0.016515,-0.369617,-0.456345,-0.366019,1,1
8,1,-0.860625,0.032795,-0.472122,-0.337549,-0.342815,1,1
10,1,-0.809365,-0.020978,-0.353007,-0.327184,-0.367185,1,1
21,1,-0.829077,0.000870,-0.462912,-0.352000,-0.443740,1,1
24,1,-0.753034,-0.126852,-0.412382,-0.355409,-0.381765,1,1
35,1,-0.945570,-0.035470,-0.448376,-0.375218,-0.404706,1,1
38,1,-0.846462,-0.089588,-0.464111,-0.361239,-0.332217,1,1
29,1,-0.769609,-0.106930,-0.354988,-0.486314,-0.353427,1,1
16,1,-0.796376,-0.019879,-0.414964,-0.459911,-0.310289,1,1
27,1,-0.748902,0.037711,-0.400583,-0.404569,-0.370961,1,1
9,1,-0.897370,-0.006508,-0.423145,-0.312990,-0.430494,1,1
28,1,-0.736554,-0.029398,-0.460362,-0.374468,-0.436972,1,1
37,1,-0.799299,-0.029358,-0.458835,-0.390446,-0.371351,1,1
32,1,-0.792587,-0.095009,-0.381291,-0.377542,-0.302421,1,1
34,1,-0.764430,-0.036582,-0.455128,-0.368903,-0.354001,1,1
33,1,-0.819319,-0.042036,-0.432699,-0.407283,-0.362110,1,1
30,1,-0.774106,-0.121024,-0.395514,-0.438599,-0.434719,1,1
25,1,-0.833167,-0.054700,-0.367432,-0.431718,-0.393072,1,1
4,1,-0.808187,0.064645,-0.400287,-0.372847,-0.235437,1,1
14,1,-0.721536,-0.019922,-0.373236,-0.368025,-0.289312,1,1
18,1,-0.768782,0.009195,-0.432590,-0.344548,-0.345772,1,1
19,1,-0.797441,-0.119897,-0.390694,-0.310399,-0.390579,1,1
7,1,-0.824042,-0.040757,-0.400695,-0.352565,-0.330191,1,1
23,1,-0.740739,-0.105840,-0.408917,-0.376604,-0.271164,1,1
0,1,-0.840381,0.106118,-0.463104,-0.296989,-0.290357,1,0
26,1,-0.783229,-0.044993,-0.396477,-0.453704,-0.334770,1,1
15,1,-0.864781,-0.009975,-0.425481,-0.428900,-0.382110,1,1
31,1,-0.789665,-0.027340,-0.489709,-0.431355,-0.472243,1,1
6,1,-0.780796,0.014311,-0.384286,-0.386876,-0.340928,1,1
3,1,-0.731869,0.015630,-0.436696,-0.428663,-0.372759,1,1
39,1,-0.824934,-0.090984,-0.458830,-0.389112,-0.410522,1,1
1,1,-0.795532,0.030239,-0.370537,-0.412569,-0.364851,1,1
11,1,-0.761824,0.034780,-0.452584,-0.350756,-0.354473,1,1
5,1,-0.835484,0.051685,-0.424599,-0.384759,-0.249100,1,1
12,1,-0.774864,0.134188,-0.305150,-0.456867,-0.342392,1,0
2,1,-0.732951,-0.037854,-0.381340,-0.401208,-0.293799,1,1
36,1,-0.761604,-0.006920,-0.399870,-0.443997,-0.384459,1,1
20,1,-0.769431,-0.088220,-0.430634,-0.349233,-0.479926,1,1
22,1,-0.819773,-0.084611,-0.407913,-0.474894,-0.402211,1,1
17,1,-0.861028,0.067444,-0.453559,-0.304480,-0.365585,1,1
52,2,-0.797339,0.010845,-0.355959,-0.354306,-0.358544,1,1
68,2,-0.858852,-0.002544,-0.352328,-0.411792,-0.332908,1,1
47,2,-0.872202,-0.055407,-0.356516,-0.463404,-0.255846,1,1
58,2,-0.802855,0.012037,-0.402636,-0.353266,-0.336737,1,1
72,2,-0.757737,-0.103809,-0.418770,-0.395382,-0.303969,1,1
66,2,-0.849273,0.022125,-0.371066,-0.388239,-0.383696,1,1
79,2,-0.836831,-0.111318,-0.374227,-0.345517,-0.461568,1,1
67,2,-0.857116,0.098360,-0.486285,-0.356257,-0.295326,1,1
57,2,-0.757896,-0.014117,-0.389713,-0.343888,-0.218699,1,1
65,2,-0.873563,-0.024292,-0.418755,-0.339801,-0.361318,1,1
64,2,-0.832476,-0.019950,-0.506619,-0.338944,-0.317618,1,1
75,2,-0.776595,-0.134210,-0.407876,-0.357840,-0.351181,1,1
63,2,-0.784954,-0.137199,-0.417737,-0.376531,-0.383913,1,1
77,2,-0.809671,-0.065851,-0.378489,-0.482035,-0.414872,1,1
40,2,-0.770950,0.104499,-0.403689,-0.398893,-0.319756,1,0
43,2,-0.746924,0.049862,-0.399593,-0.255616,-0.384313,1,1
51,2,-0.852932,-0.011431,-0.382601,-0.366156,-0.369147,1,1
45,2,-0.888591,0.045703,-0.370616,-0.384498,-0.279385,1,1
48,2,-0.800004,0.086131,-0.457749,-0.321788,-0.300104,1,1
74,2,-0.789761,-0.050948,-0.425727,-0.391639,-0.387263,1,1
78,2,-0.736704,-0.048195,-0.446556,-0.352829,-0.318911,1,1
50,2,-0.745899,-0.041321,-0.428226,-0.366248,-0.308755,1,1
56,2,-0.778595,0.006274,-0.391271,-0.474395,-0.400869,1,1
71,2,-0.863016,0.005711,-0.391674,-0.404862,-0.393680,1,1
46,2,-0.830559,-0.026144,-0.411321,-0.442351,-0.278140,1,1
41,2,-0.770561,-0.012017,-0.458286,-0.369912,-0.340904,1,1
49,2,-0.849599,-0.052219,-0.380363,-0.328561,-0.385156,1,1
76,2,-0.795566,-0.078906,-0.489358,-0.438369,-0.441647,1,1
42,2,-0.821249,0.008413,-0.434516,-0.393782,-0.366221,1,1
61,2,-0.806726,-0.100238,-0.394762,-0.308446,-0.464837,1,1
60,2,-0.847227,-0.062779,-0.466292,-0.345896,-0.400784,1,1
54,2,-0.773369,-0.007260,-0.410574,-0.413720,-0.317231,1,1
70,2,-0.869821,0.022123,-0.389965,-0.422299,-0.346669,1,1
69,2,-0.872187,0.027178,-0.401625,-0.356743,-0.410188,1,1
55,2,-0.831404,0.029559,-0.420020,-0.276783,-0.365164,1,1
44,2,-0.822653,-0.014699,-0.409078,-0.298291,-0.363605,1,1
59,2,-0.753996,-0.047256,-0.365340,-0.410456,-0.295277,1,1
62,2,-0.875646,-0.083577,-0.370770,-0.416632,-0.396245,1,1
73,2,-0.789448,-0.102495,-0.364109,-0.425887,-0.349758,1,1
53,2,-0.731243,-0.016187,-0.365726,-0.413955,-0.344497,1,1
108,3,-0.772993,-0.004438,-0.369185,-0.447663,-0.344726,1,1
95,3,-0.859431,0.058211,-0.403381,-0.338334,-0.387349,1,1
115,3,-0.817076,-0.029946,-0.426569,-0.495527,-0.350649,1,1
89,3,-0.892555,0.006850,-0.425797,-0.362163,-0.292510,1,1
113,3,-0.925584,-0.061895,-0.496030,-0.447440,-0.331596,1,1
112,3,-0.831010,-0.105138,-0.435129,-0.423048,-0.437138,1,1
117,3,-0.848895,-0.090380,-0.409687,-0.448620,-0.396517,1,1
110,3,-0.855112,-0.095266,-0.442489,-0.368126,-0.381135,1,1
114,3,-0.831274,-0.094371,-0.380478,-0.397362,-0.391521,1,1
87,3,-0.758426,-0.054242,-0.395075,-0.386188,-0.321532,1,1
81,3,-0.851093,0.034948,-0.401470,-0.391028,-0.415089,1,1
90,3,-0.784372,0.045127,-0.435656,-0.325852,-0.216652,1,1
82,3,-0.808780,-0.118274,-0.414492,-0.311892,-0.314432,1,1
85,3,-0.817892,-0.077254,-0.398036,-0.352526,-0.296890,1,1
97,3,-0.787430,0.045548,-0.378695,-0.334013,-0.285569,1,1
100,3,-0.825554,0.051760,-0.406197,-0.243500,-0.443615,1,1
86,3,-0.800721,0.058490,-0.432457,-0.473852,-0.323487,1,1
104,3,-0.845644,-0.057913,-0.450088,-0.437684,-0.370195,1,1
119,3,-0.834007,-0.144340,-0.457101,-0.341371,-0.366750,0,1
111,3,-0.790066,0.075701,-0.427574,-0.358277,-0.409209,1,1
101,3,-0.839998,-0.014705,-0.410860,-0.441564,-0.380571,1,1
103,3,-0.796919,-0.089130,-0.445739,-0.455790,-0.323818,1,1
94,3,-0.736520,0.031117,-0.387417,-0.355073,-0.287836,1,1
105,3,-0.817345,-0.008817,-0.357801,-0.386236,-0.360420,1,1
109,3,-0.842585,-0.058325,-0.417433,-0.442996,-0.363966,1,1
92,3,-0.733441,-0.044167,-0.362293,-0.391406,-0.380182,1,1
91,3,-0.798304,-0.058352,-0.360776,-0.293473,-0.378919,1,1
84,3,-0.750968,-0.061473,-0.422630,-0.284958,-0.332933,1,1
98,3,-0.844485,-0.007088,-0.414929,-0.352475,-0.416335,1,1
99,3,-0.741111,-0.026626,-0.393268,-0.334104,-0.366252,1,1
116,3,-0.839874,-0.042293,-0.458333,-0.364896,-0.397409,1,1
106,3,-0.787944,-0.070619,-0.389632,-0.419591,-0.374967,1,1
88,3,-0.742929,-0.057776,-0.360915,-0.360060,-0.396142,1,1
80,3,-0.737323,-0.079244,-0.389576,-0.444932,-0.360290,1,1
118,3,-0.792421,-0.041407,-0.483878,-0.340362,-0.372129,1,1
83,3,-0.814124,0.025956,-0.369525,-0.413345,-0.355558,1,1
96,3,-0.836457,0.007643,-0.364991,-0.329478,-0.364720,1,1
107,3,-0.791952,-0.001878,-0.468585,-0.313113,-0.340115,1,1
102,3,-0.819486,-0.067686,-0.422725,-0.396946,-0.383322,1,1
93,3,-0.848579,0.081901,-0.404984,-0.403257,-0.402839,1,1
140,4,-0.749368,-0.106752,-0.445569,-0.430672,-0.363411,1,1
146,4,-0.795274,-0.072821,-0.339713,-0.360940,-0.480070,1,1
129,4,-0.768398,0.027835,-0.396297,-0.432167,-0.318452,1,1
125,4,-0.811422,0.035845,-0.362081,-0.279081,-0.313437,1,1
144,4,-0.844019,0.025471,-0.421044,-0.375009,-0.375074,1,1
133,4,-0.752030,0.019436,-0.297049,-0.315409,-0.340642,1,1
137,4,-0.867847,0.111368,-0.367641,-0.403679,-0.294247,1,0
151,4,-0.879502,0.013641,-0.522763,-0.450379,-0.390469,1,1
155,4,-0.863323,-0.029083,-0.471662,-0.374824,-0.326583,1,1
122,4,-0.838327,-0.026707,-0.353933,-0.403847,-0.338491,1,1
135,4,-0.817725,0.012266,-0.496549,-0.340307,-0.348086,1,1
157,4,-0.792377,-0.122629,-0.393378,-0.418001,-0.318373,1,1
139,4,-0.782960,-0.005024,-0.421190,-0.503324,-0.387729,1,1
136,4,-0.817808,0.004720,-0.347563,-0.348564,-0.325083,1,1
154,4,-0.819582,-0.094483,-0.415340,-0.421952,-0.439203,1,1
150,4,-0.754036,-0.064676,-0.381858,-0.453421,-0.448258,1,1
120,4,-0.772091,0.037852,-0.342246,-0.357833,-0.338465,1,1
156,4,-0.801217,-0.101370,-0.366320,-0.319383,-0.393582,1,1
127,4,-0.646496,0.011709,-0.393236,-0.385874,-0.235580,1,0
131,4,-0.753856,-0.003304,-0.374518,-0.284637,-0.278432,1,1
128,4,-0.695415,0.049867,-0.351740,-0.363595,-0.412446,1,1
152,4,-0.780159,-0.123302,-0.357596,-0.396866,-0.299379,1,1
147,4,-0.713869,-0.014294,-0.498369,-0.297217,-0.309506,1,1
123,4,-0.787666,-0.009102,-0.439854,-0.334749,-0.340592,1,1
143,4,-0.792857,-0.046954,-0.320504,-0.406178,-0.478351,1,1
132,4,-0.715585,-0.070638,-0.383723,-0.423270,-0.394344,1,1
142,4,-0.713233,-0.033444,-0.522548,-0.362157,-0.356637,1,1
130,4,-0.761720,0.024165,-0.365643,-0.430259,-0.427218,1,1
138,4,-0.765291,0.017103,-0.425386,-0.440035,-0.326819,1,1
134,4,-0.738541,-0.007938,-0.367002,-0.349333,-0.321258,1,1
153,4,-0.738251,0.005869,-0.444395,-0.330863,-0.301935,1,1
141,4,-0.765508,0.029949,-0.382283,-0.448070,-0.394470,1,1
145,4,-0.771640,-0.064468,-0.388352,-0.333746,-0.361333,1,1
124,4,-0.790429,-0.016176,-0.374737,-0.385640,-0.321029,1,1
159,4,-0.888361,-0.091644,-0.376849,-0.299271,-0.319886,1,1
148,4,-0.857436,-0.019901,-0.451395,-0.313560,-0.365522,1,1
121,4,-0.818363,0.007818,-0.339930,-0.448166,-0.350571,1,1
149,4,-0.750564,0.004256,-0.458416,-0.389681,-0.379593,1,1
126,4,-0.774213,-0.038076,-0.469748,-0.296057,-0.353766,1,1
158,4,-0.805671,-0.081136,-0.392681,-0.410432,-0.311429,1,1
184,5,-0.795917,-0.060412,-0.358765,-0.418527,-0.502222,1,1
190,5,-0.743569,-0.042272,-0.478520,-0.431121,-0.321440,1,1
199,5,-0.817479,-0.065575,-0.323027,-0.374612,-0.362745,1,1
167,5,-0.811705,0.105161,-0.396233,-0.386093,-0.269811,1,0
188,5,-0.727328,-0.029305,-0.449281,-0.465213,-0.310247,1,1
192,5,-0.856389,-0.018001,-0.412712,-0.419785,-0.474953,1,1
193,5,-0.808819,-0.051529,-0.365235,-0.322191,-0.378895,1,1
160,5,-0.793969,-0.031543,-0.380575,-0.342244,-0.317740,1,1
187,5,-0.694843,-0.106084,-0.393912,-0.421030,-0.319677,1,1
168,5,-0.734258,0.042395,-0.407530,-0.343859,-0.439645,1,1
183,5,-0.686705,-0.193494,-0.448340,-0.314287,-0.383681,0,1
170,5,-0.825428,-0.019650,-0.368668,-0.362157,-0.293568,1,1
173,5,-0.725089,-0.038375,-0.490413,-0.378781,-0.337169,1,1
181,5,-0.748710,-0.096785,-0.467350,-0.395797,-0.394376,1,1
180,5,-0.709151,-0.072690,-0.435613,-0.425443,-0.417991,1,1
176,5,-0.693059,0.009638,-0.450428,-0.363112,-0.325457,1,1
165,5,-0.781814,0.026253,-0.279111,-0.394636,-0.344706,1,1
172,5,-0.686714,-0.084147,-0.462091,-0.380829,-0.406697,1,1
197,5,-0.734903,0.008973,-0.434729,-0.490903,-0.302759,1,1
198,5,-0.862258,-0.012458,-0.307181,-0.374260,-0.329799,1,1
171,5,-0.760055,0.095391,-0.392566,-0.398320,-0.328463,1,1
182,5,-0.786501,-0.027601,-0.395389,-0.365053,-0.346666,1,1
186,5,-0.809704,0.068705,-0.401661,-0.359169,-0.365035,1,1
178,5,-0.751800,-0.017596,-0.391847,-0.383085,-0.367033,1,1
162,5,-0.782973,0.074049,-0.409180,-0.365266,-0.346625,1,1
194,5,-0.723330,-0.053820,-0.395893,-0.443284,-0.435451,1,1
189,5,-0.759954,0.034880,-0.462664,-0.336675,-0.266672,1,1
177,5,-0.701928,0.057301,-0.396042,-0.440041,-0.335035,1,1
175,5,-0.716574,-0.065097,-0.371462,-0.366761,-0.315530,1,1
179,5,-0.769999,-0.022668,-0.451624,-0.338049,-0.282864,1,1
196,5,-0.852128,-0.085701,-0.341785,-0.333195,-0.319153,1,1
191,5,-0.797440,0.008771,-0.492258,-0.358491,-0.368432,1,1
161,5,-0.766469,0.046227,-0.371909,-0.355818,-0.322205,1,1
185,5,-0.749661,-0.016645,-0.429701,-0.359786,-0.372239,1,1
164,5,-0.795153,-0.005328,-0.408649,-0.319190,-0.452599,1,1
195,5,-0.661120,-0.111404,-0.396905,-0.405510,-0.256395,0,1
174,5,-0.762661,-0.138070,-0.484419,-0.316323,-0.291586,1,1
169,5,-0.735426,0.070158,-0.429035,-0.301324,-0.342969,1,1
163,5,-0.672045,0.048884,-0.419083,-0.336491,-0.358642,1,1
166,5,-0.699067,-0.074334,-0.334507,-0.398076,-0.358673,1,1
209,6,-0.763971,-0.066068,-0.408061,-0.362747,-0.374013,1,1
237,6,-0.820186,-0.071444,-0.427521,-0.328038,-0.444367,1,1
202,6,-0.712531,-0.016662,-0.496554,-0.394980,-0.301195,1,1
235,6,-0.839299,-0.067654,-0.346075,-0.442624,-0.424340,1,1
222,6,-0.823379,-0.090820,-0.304080,-0.286188,-0.281729,1,1
219,6,-0.749763,0.001313,-0.404197,-0.320533,-0.264338,1,1
238,6,-0.777119,-0.007933,-0.447982,-0.399794,-0.344624,1,1
218,6,-0.745637,0.150738,-0.350457,-0.324725,-0.216660,1,0
229,6,-0.764029,-0.070285,-0.376134,-0.377620,-0.389015,1,1
236,6,-0.761022,-0.044450,-0.348378,-0.422562,-0.387551,1,1
208,6,-0.800441,0.046573,-0.306226,-0.247835,-0.271604,1,1
226,6,-0.698679,-0.041697,-0.393870,-0.355752,-0.461062,1,1
239,6,-0.744202,-0.093467,-0.391505,-0.344350,-0.411366,1,1
214,6,-0.769725,0.014624,-0.442390,-0.264987,-0.350116,1,1
205,6,-0.776643,-0.060340,-0.296505,-0.379468,-0.316339,1,1
216,6,-0.744229,-0.057674,-0.450068,-0.302257,-0.386425,1,1
233,6,-0.779896,-0.012047,-0.432146,-0.379283,-0.241556,1,1
204,6,-0.714291,-0.135752,-0.322899,-0.357413,-0.354786,1,1
207,6,-0.788977,-0.032114,-0.320361,-0.333178,-0.366439,1,1
224,6,-0.765317,-0.089753,-0.445498,-0.350720,-0.352622,1,1
231,6,-0.754619,0.018633,-0.397420,-0.415135,-0.395985,1,1
212,6,-0.774337,0.071176,-0.345237,-0.379782,-0.367118,1,1
215,6,-0.744726,0.110048,-0.376533,-0.492117,-0.334048,1,0
221,6,-0.697316,-0.049512,-0.455925,-0.343076,-0.326899,1,1
200,6,-0.723486,0.017143,-0.289205,-0.373604,-0.410733,1,1
230,6,-0.872426,-0.076378,-0.473201,-0.360453,-0.228976,1,1
206,6,-0.722875,-0.111128,-0.379588,-0.352093,-0.190650,1,1
213,6,-0.820091,-0.019192,-0.306096,-0.319476,-0.318739,1,1
223,6,-0.611903,-0.055944,-0.401117,-0.260335,-0.345718,0,1
201,6,-0.793111,-0.010040,-0.479378,-0.271655,-0.323673,1,1
210,6,-0.722430,0.044448,-0.340612,-0.323235,-0.298485,1,1
232,6,-0.672438,-0.041307,-0.489946,-0.347536,-0.326549,1,1
211,6,-0.773738,0.035896,-0.403194,-0.325064,-0.368086,1,1
227,6,-0.759377,-0.012019,-0.469364,-0.360788,-0.302269,1,1
220,6,-0.824673,-0.042617,-0.415716,-0.343944,-0.412499,1,1
217,6,-0.720087,-0.024707,-0.421342,-0.380157,-0.378723,1,1
203,6,-0.750288,0.125151,-0.389830,-0.350140,-0.344832,1,0
228,6,-0.814807,-0.026104,-0.448609,-0.358474,-0.392155,1,1
234,6,-0.812228,-0.127686,-0.402195,-0.309543,-0.326538,1,1
225,6,-0.750707,0.006401,-0.368155,-0.394202,-0.376479,1,1
266,7,-0.786365,-0.081641,-0.415986,-0.374185,-0.462337,1,1
243,7,-0.691468,0.025894,-0.271115,-0.365701,-0.331867,1,1
248,7,-0.767327,-0.000022,-0.460433,-0.306130,-0.339038,1,1
261,7,-0.809052,-0.004371,-0.442725,-0.416547,-0.429482,1,1
257,7,-0.706424,-0.131026,-0.379776,-0.385887,-0.340121,1,1
264,7,-0.729976,-0.047169,-0.479697,-0.368105,-0.413151,1,1
246,7,-0.685786,-0.061064,-0.303454,-0.382468,-0.318863,1,1
278,7,-0.779590,-0.010935,-0.375249,-0.379108,-0.385556,1,1
265,7,-0.771202,-0.058931,-0.483125,-0.414621,-0.380242,1,1
260,7,-0.747044,-0.003687,-0.351786,-0.356389,-0.263366,1,1
275,7,-0.763044,-0.007629,-0.416025,-0.330227,-0.355650,1,1
255,7,-0.742733,0.002968,-0.359817,-0.302336,-0.310582,1,1
268,7,-0.806245,0.017463,-0.384395,-0.441798,-0.360743,1,1
274,7,-0.759523,0.017141,-0.386361,-0.349578,-0.350652,1,1
245,7,-0.752024,0.021140,-0.404886,-0.250491,-0.356884,1,1
250,7,-0.703548,-0.073626,-0.523966,-0.298368,-0.448622,1,1
256,7,-0.748372,0.000824,-0.411798,-0.308571,-0.337689,1,1
279,7,-0.727368,0.106273,-0.427629,-0.389976,-0.294276,1,1
272,7,-0.692804,-0.199975,-0.418697,-0.364216,-0.321857,0,1
276,7,-0.672848,-0.095734,-0.467498,-0.395532,-0.337826,1,1
252,7,-0.769482,0.076876,-0.363763,-0.385158,-0.335322,1,1
249,7,-0.699352,0.066573,-0.458874,-0.413608,-0.325894,1,1
270,7,-0.764870,0.055512,-0.342697,-0.385692,-0.366140,1,1
247,7,-0.765392,0.045445,-0.370556,-0.355501,-0.416853,1,1
242,7,-0.680609,0.036445,-0.318303,-0.227193,-0.337017,1,1
269,7,-0.799740,-0.061955,-0.425651,-0.361679,-0.398871,1,1
259,7,-0.676994,-0.017724,-0.351178,-0.462858,-0.307613,1,1
258,7,-0.691084,0.067106,-0.364850,-0.266987,-0.372909,1,1
267,7,-0.754561,-0.025580,-0.383090,-0.342264,-0.380856,1,1
253,7,-0.807100,0.054435,-0.427958,-0.370412,-0.232828,1,1
241,7,-0.743330,-0.063787,-0.369783,-0.305282,-0.313332,1,1
244,7,-0.733234,-0.053377,-0.328030,-0.365427,-0.279003,1,1
273,7,-0.796487,-0.036881,-0.391993,-0.382814,-0.319376,1,1
271,7,-0.651018,-0.078920,-0.371269,-0.439519,-0.455911,1,1
277,7,-0.837628,0.013120,-0.417356,-0.317269,-0.344804,1,1
254,7,-0.666421,-0.048988,-0.386327,-0.377700,-0.177603,1,1
251,7,-0.728666,0.070236,-0.355670,-0.365710,-0.355152,1,1
262,7,-0.858577,-0.079418,-0.398806,-0.362369,-0.242270,1,1
240,7,-0.874039,-0.015258,-0.407555,-0.321161,-0.353771,1,1
263,7,-0.763166,-0.007152,-0.470301,-0.426487,-0.348455,1,1
283,8,-0.701255,0.058584,-0.374792,-0.290724,-0.355864,1,1
309,8,-0.725292,-0.089499,-0.404484,-0.350718,-0.373148,1,1
307,8,-0.769180,-0.003127,-0.431546,-0.409599,-0.410250,1,1
292,8,-0.667070,-0.095115,-0.500979,-0.286989,-0.238693,1,1
293,8,-0.696409,-0.011609,-0.350291,-0.267639,-0.332524,1,1
296,8,-0.780531,0.094856,-0.299618,-0.323323,-0.290787,1,1
290,8,-0.678074,0.001445,-0.274006,-0.207555,-0.372502,1,1
317,8,-0.810469,-0.087149,-0.410473,-0.433196,-0.286380,1,1
310,8,-0.650350,-0.104993,-0.388915,-0.259968,-0.356780,1,1
319,8,-0.756884,0.009124,-0.449403,-0.347669,-0.450975,1,1
304,8,-0.788902,-0.059900,-0.383262,-0.316744,-0.342540,1,1
287,8,-0.640039,0.006898,-0.237075,-0.304343,-0.368455,1,1
284,8,-0.657071,-0.108137,-0.325810,-0.352148,-0.359641,1,1
295,8,-0.720015,0.001374,-0.402554,-0.357774,-0.310590,1,1
298,8,-0.640922,-0.013699,-0.377941,-0.313698,-0.435178,1,1
303,8,-0.891956,0.025970,-0.361251,-0.455204,-0.360940,0,1
308,8,-0.742409,-0.049743,-0.447186,-0.396592,-0.357403,1,1
318,8,-0.756849,-0.082653,-0.525255,-0.425430,-0.265459,1,1
299,8,-0.759350,-0.018792,-0.372847,-0.341749,-0.282883,1,1
291,8,-0.772170,-0.016768,-0.262592,-0.243657,-0.279190,1,1
315,8,-0.760998,0.028513,-0.448421,-0.353349,-0.424282,1,1
294,8,-0.710269,0.005113,-0.373612,-0.282385,-0.292935,1,1
286,8,-0.711395,0.007229,-0.338873,-0.389418,-0.349097,1,1
288,8,-0.727668,-0.109099,-0.415373,-0.376144,-0.287835,1,1
313,8,-0.789065,-0.121860,-0.380737,-0.426858,-0.310589,1,1
285,8,-0.660041,0.004787,-0.384706,-0.282504,-0.305760,1,1
302,8,-0.848967,-0.012333,-0.413636,-0.432528,-0.303550,1,1
297,8,-0.659611,-0.027114,-0.349064,-0.489838,-0.217760,1,1
312,8,-0.646745,0.008195,-0.400292,-0.508784,-0.395215,1,1
280,8,-0.724592,0.013119,-0.369561,-0.443885,-0.342904,1,1
305,8,-0.695006,-0.003837,-0.373284,-0.431126,-0.369328,1,1
282,8,-0.667228,0.082069,-0.362758,-0.347435,-0.221622,1,0
300,8,-0.755206,-0.084259,-0.372963,-0.375886,-0.360299,1,1
281,8,-0.633535,0.057528,-0.349105,-0.367182,-0.275863,1,0
311,8,-0.755716,0.029713,-0.389292,-0.378197,-0.292831,1,1
301,8,-0.763052,-0.083229,-0.386469,-0.401442,-0.399083,1,1
316,8,-0.777007,-0.028909,-0.399213,-0.358851,-0.293971,1,1
314,8,-0.763147,-0.125852,-0.435451,-0.453199,-0.339918,1,1
306,8,-0.778449,-0.052735,-0.420678,-0.402671,-0.316862,1,1
289,8,-0.700808,-0.015118,-0.349731,-0.287211,-0.402214,1,1
357,9,-0.754020,-0.072546,-0.336690,-0.406076,-0.372485,1,1
333,9,-0.627128,0.016798,-0.501937,-0.382825,-0.289894,1,1
339,9,-0.713351,-0.005431,-0.431394,-0.324455,-0.358891,1,1
324,9,-0.677380,0.103161,-0.329306,-0.296208,-0.241073,1,0
353,9,-0.682696,-0.099357,-0.415632,-0.390522,-0.328689,1,1
343,9,-0.683666,-0.002757,-0.400196,-0.390343,-0.322217,1,1
351,9,-0.830663,-0.029744,-0.397564,-0.363362,-0.323083,1,1
346,9,-0.789716,-0.057587,-0.386756,-0.418551,-0.304165,1,1
335,9,-0.728299,0.025897,-0.282676,-0.304491,-0.360783,1,1
355,9,-0.792174,-0.059906,-0.407997,-0.412314,-0.368457,1,1
347,9,-0.763495,-0.034486,-0.354547,-0.398140,-0.340488,1,1
340,9,-0.758656,-0.023863,-0.400557,-0.382700,-0.379521,1,1
322,9,-0.708158,0.065141,-0.280180,-0.320572,-0.305729,1,1
336,9,-0.692837,-0.051308,-0.378812,-0.310999,-0.289639,1,1
334,9,-0.570074,0.084394,-0.387344,-0.320169,-0.324892,1,0
323,9,-0.624088,0.038347,-0.257524,-0.427179,-0.432318,1,0
325,9,-0.689772,0.093336,-0.350530,-0.301639,-0.293348,1,0
359,9,-0.749424,-0.026254,-0.357435,-0.420289,-0.313063,1,1
349,9,-0.762967,-0.008730,-0.346653,-0.423833,-0.410193,1,1
358,9,-0.701979,-0.064560,-0.374870,-0.321760,-0.292727,1,1
326,9,-0.732232,0.040638,-0.351822,-0.349701,-0.333151,1,1
331,9,-0.696128,0.047386,-0.373847,-0.389287,-0.371632,1,1
341,9,-0.747184,-0.006476,-0.365899,-0.359894,-0.269744,1,1
327,9,-0.772057,-0.018783,-0.322012,-0.327655,-0.189274,1,1
348,9,-0.891886,-0.049385,-0.506837,-0.375065,-0.351317,0,1
332,9,-0.688149,0.022792,-0.436537,-0.271657,-0.303834,1,1
342,9,-0.815188,0.000351,-0.448528,-0.393880,-0.322147,1,1
337,9,-0.645234,-0.023271,-0.456997,-0.302970,-0.361778,1,1
356,9,-0.789757,-0.000518,-0.455244,-0.476305,-0.415017,1,1
345,9,-0.769808,-0.033892,-0.360101,-0.340300,-0.304857,1,1
328,9,-0.643415,-0.051537,-0.360359,-0.251729,-0.252951,1,1
352,9,-0.882796,-0.130015,-0.400580,-0.374543,-0.467517,0,1
344,9,-0.734595,-0.059950,-0.360782,-0.433191,-0.399259,1,1
329,9,-0.554511,-0.040411,-0.325010,-0.344260,-0.391965,1,0
320,9,-0.775919,-0.018755,-0.372648,-0.191380,-0.338689,1,1
354,9,-0.680129,-0.103707,-0.467705,-0.352992,-0.414449,1,1
330,9,-0.759256,0.013753,-0.357371,-0.331870,-0.255036,1,1
350,9,-0.739661,0.060090,-0.301551,-0.370898,-0.310611,1,1
321,9,-0.623289,0.098900,-0.373180,-0.234899,-0.259490,1,0
338,9,-0.670394,-0.091912,-0.334542,-0.294215,-0.354055,1,1
374,10,-0.628928,-0.002457,-0.322222,-0.343633,-0.401977,1,1
390,10,-0.667916,-0.052768,-0.390541,-0.420966,-0.319832,1,1
361,10,-0.712775,0.060813,-0.368877,-0.274431,-0.360348,1,1
363,10,-0.587929,-0.091521,-0.336601,-0.328705,-0.425588,1,0
376,10,-0.645220,-0.041014,-0.341681,-0.291782,-0.288746,1,1
394,10,-0.711267,-0.003592,-0.521663,-0.413961,-0.337598,1,1
360,10,-0.705633,-0.050928,-0.291579,-0.347394,-0.289639,1,1
377,10,-0.691984,-0.031714,-0.295913,-0.348190,-0.357850,1,1
370,10,-0.676479,-0.015047,-0.424260,-0.267820,-0.321175,1,1
378,10,-0.769775,-0.016700,-0.369817,-0.253355,-0.300316,1,1
393,10,-0.758375,0.064745,-0.408043,-0.382120,-0.333674,1,1
399,10,-0.702211,-0.023699,-0.398143,-0.361451,-0.282141,1,1
372,10,-0.640330,0.068424,-0.326963,-0.319362,-0.275520,1,0
385,10,-0.770349,0.008181,-0.411126,-0.355027,-0.335949,1,1
384,10,-0.772969,-0.198136,-0.324325,-0.363883,-0.329183,0,1
391,10,-0.790734,0.017359,-0.277744,-0.388216,-0.334169,1,1
371,10,-0.754967,-0.061089,-0.227770,-0.288863,-0.255806,1,1
366,10,-0.607319,-0.011774,-0.472868,-0.396100,-0.323972,1,1
367,10,-0.737263,0.030960,-0.342750,-0.302744,-0.330229,1,1
382,10,-0.808253,-0.063960,-0.393397,-0.352913,-0.333762,1,1
380,10,-0.744344,-0.094924,-0.269579,-0.471908,-0.317036,1,1
365,10,-0.662960,0.008485,-0.305960,-0.286702,-0.332839,1,1
389,10,-0.716285,-0.011595,-0.426030,-0.462025,-0.339788,1,1
379,10,-0.652252,-0.006728,-0.287957,-0.396124,-0.260729,1,1
383,10,-0.801428,-0.010274,-0.390435,-0.284342,-0.331936,1,1
373,10,-0.687585,0.000577,-0.432852,-0.251129,-0.348425,1,1
381,10,-0.755914,-0.043577,-0.341131,-0.392620,-0.421813,1,1
392,10,-0.703916,-0.003098,-0.358025,-0.390949,-0.482221,1,1
398,10,-0.816330,-0.054944,-0.421251,-0.421704,-0.340352,1,1
364,10,-0.701707,0.102582,-0.345411,-0.352834,-0.289240,1,0
386,10,-0.795963,-0.078608,-0.344721,-0.404812,-0.440843,1,1
396,10,-0.763277,-0.078885,-0.447100,-0.435876,-0.282174,1,1
388,10,-0.866124,-0.027806,-0.506132,-0.361385,-0.443067,0,1
368,10,-0.705453,-0.021587,-0.362880,-0.312959,-0.366338,1,1
362,10,-0.701440,0.016154,-0.323038,-0.312935,-0.245316,1,1
369,10,-0.730111,-0.072003,-0.314315,-0.333827,-0.227098,1,1
387,10,-0.775338,-0.069947,-0.351109,-0.424300,-0.355885,1,1
395,10,-0.783680,-0.010795,-0.319588,-0.351419,-0.376435,1,1
397,10,-0.814193,-0.023874,-0.415191,-0.451479,-0.374369,1,1
375,10,-0.703115,-0.022399,-0.321780,-0.324878,-0.364897,1,1
417,11,-0.650163,-0.049671,-0.356901,-0.311048,-0.405135,1,1
428,11,-0.641396,-0.045895,-0.366338,-0.381699,-0.370392,1,1
405,11,-0.750910,0.022334,-0.357159,-0.335114,-0.254045,1,1
433,11,-0.712820,-0.082280,-0.461299,-0.464052,-0.262713,1,1
402,11,-0.671660,-0.041523,-0.394395,-0.280414,-0.323623,1,1
438,11,-0.734178,-0.053839,-0.433668,-0.314078,-0.237395,1,1
415,11,-0.735206,0.028649,-0.364194,-0.310337,-0.255966,1,1
432,11,-0.687701,-0.088606,-0.360685,-0.277587,-0.288189,1,1
418,11,-0.666136,0.001895,-0.407600,-0.321332,-0.223612,1,1
416,11,-0.695569,0.010062,-0.312651,-0.367908,-0.318122,1,1
403,11,-0.680500,-0.006992,-0.388181,-0.274467,-0.289350,1,1
409,11,-0.748185,-0.058254,-0.378281,-0.330665,-0.244792,1,1
411,11,-0.727656,0.060296,-0.329083,-0.346912,-0.306962,1,1
426,11,-0.713671,-0.023394,-0.344232,-0.406995,-0.252253,1,1
435,11,-0.765426,-0.034361,-0.419157,-0.380785,-0.230984,1,1
424,11,-0.802285,-0.111176,-0.404566,-0.350716,-0.437393,0,1
423,11,-0.699893,-0.019238,-0.393260,-0.360138,-0.256328,1,1
436,11,-0.679233,-0.046233,-0.354898,-0.308650,-0.438684,1,1
425,11,-0.701160,0.004012,-0.427558,-0.485136,-0.325042,1,1
427,11,-0.674544,-0.094821,-0.458399,-0.310827,-0.340120,1,1
420,11,-0.722199,-0.097915,-0.388385,-0.333552,-0.259763,1,1
404,11,-0.688034,-0.032777,-0.375588,-0.318457,-0.320213,1,1
407,11,-0.650896,0.032992,-0.328296,-0.274283,-0.243082,1,1
406,11,-0.716433,-0.037690,-0.371399,-0.302972,-0.249191,1,1
422,11,-0.735770,0.044179,-0.430652,-0.386787,-0.310591,1,1
439,11,-0.703075,-0.014678,-0.332615,-0.432963,-0.471462,1,1
408,11,-0.678766,0.002665,-0.372498,-0.215724,-0.289204,1,1
400,11,-0.717362,-0.032683,-0.369357,-0.226516,-0.338467,1,1
419,11,-0.703086,-0.019476,-0.302653,-0.279097,-0.280545,1,1
413,11,-0.694778,0.041239,-0.353530,-0.345224,-0.284600,1,1
412,11,-0.732488,-0.053286,-0.426288,-0.335390,-0.235685,1,1
401,11,-0.716759,-0.072009,-0.374691,-0.289487,-0.332920,1,1
431,11,-0.764471,0.016489,-0.355993,-0.324659,-0.357358,1,1
437,11,-0.786041,-0.031769,-0.516928,-0.352419,-0.283290,1,1
434,11,-0.724515,-0.097650,-0.346124,-0.305841,-0.367406,1,1
429,11,-0.775912,-0.057331,-0.411966,-0.388664,-0.319618,1,1
410,11,-0.692112,-0.070676,-0.354150,-0.389051,-0.261695,1,1
430,11,-0.733288,-0.052067,-0.352947,-0.311271,-0.317379,1,1
414,11,-0.604629,0.097405,-0.413068,-0.297696,-0.293506,1,0
421,11,-0.743102,-0.085237,-0.444468,-0.370633,-0.329512,1,1
456,12,-0.705154,0.012071,-0.310763,-0.338720,-0.319204,1,1
470,12,-0.727638,-0.018947,-0.311723,-0.344934,-0.400654,1,1
454,12,-0.606387,-0.140725,-0.348710,-0.343477,-0.284536,1,0
441,12,-0.687506,0.020019,-0.350862,-0.405269,-0.372275,1,1
444,12,-0.639601,0.040648,-0.297942,-0.289265,-0.339981,1,1
450,12,-0.687456,-0.018063,-0.407233,-0.379422,-0.323985,1,1
442,12,-0.753406,0.011045,-0.321352,-0.244800,-0.434884,1,1
455,12,-0.651725,0.047879,-0.403870,-0.286542,-0.209793,1,1
457,12,-0.685451,-0.063440,-0.274800,-0.208536,-0.277740,1,1
459,12,-0.762104,-0.010032,-0.355752,-0.349543,-0.221518,1,1
464,12,-0.764321,-0.076415,-0.405453,-0.344571,-0.365763,1,1
443,12,-0.604713,-0.040420,-0.339935,-0.329354,-0.177505,1,1
477,12,-0.752467,-0.062818,-0.371997,-0.346787,-0.362722,1,1
446,12,-0.633174,0.022065,-0.354417,-0.389228,-0.356781,1,1
468,12,-0.749753,0.082018,-0.367029,-0.345692,-0.363365,1,1
451,12,-0.646556,-0.002254,-0.266319,-0.355491,-0.277431,1,1
466,12,-0.753493,0.018775,-0.377218,-0.363941,-0.345803,1,1
476,12,-0.667300,-0.007041,-0.366837,-0.388982,-0.296876,1,1
448,12,-0.614518,0.067566,-0.383169,-0.341424,-0.262248,1,0
462,12,-0.734904,-0.122363,-0.367959,-0.331340,-0.269134,1,1
471,12,-0.627878,-0.010901,-0.418236,-0.413335,-0.342856,1,1
467,12,-0.836158,-0.031663,-0.480413,-0.258085,-0.365033,0,1
453,12,-0.676566,0.032494,-0.266688,-0.348636,-0.345755,1,1
469,12,-0.646814,0.041161,-0.363341,-0.377176,-0.390486,1,1
458,12,-0.662731,0.016761,-0.311094,-0.328832,-0.238049,1,1
479,12,-0.682782,-0.031773,-0.360188,-0.271487,-0.384738,1,1
465,12,-0.689211,0.052332,-0.393154,-0.423299,-0.258128,1,1
472,12,-0.770128,-0.029866,-0.431663,-0.399893,-0.370624,1,1
475,12,-0.757240,-0.035160,-0.440602,-0.341441,-0.291108,1,1
445,12,-0.690905,-0.047179,-0.310077,-0.361986,-0.242346,1,1
452,12,-0.588040,-0.038256,-0.248675,-0.222722,-0.294984,1,1
447,12,-0.754604,0.032442,-0.388107,-0.342456,-0.237525,1,1
440,12,-0.628595,-0.036912,-0.315732,-0.320820,-0.343321,1,1
461,12,-0.728417,0.014347,-0.415880,-0.391129,-0.294902,1,1
473,12,-0.764446,-0.008446,-0.429929,-0.371702,-0.347559,1,1
474,12,-0.759770,-0.162487,-0.362452,-0.280842,-0.375905,0,1
460,12,-0.690571,-0.027602,-0.331479,-0.366439,-0.337503,1,1
463,12,-0.780569,-0.054239,-0.378799,-0.365046,-0.328557,1,1
478,12,-0.702816,-0.019366,-0.378493,-0.312237,-0.343189,1,1
449,12,-0.710471,0.007447,-0.368506,-0.278723,-0.212450,1,1
519,13,-0.728798,-0.071081,-0.488293,-0.363120,-0.329742,1,1
511,13,-0.793182,-0.021459,-0.354857,-0.357525,-0.224800,1,1
492,13,-0.615145,0.048254,-0.340812,-0.261788,-0.244563,1,1
495,13,-0.708030,-0.085081,-0.354808,-0.361041,-0.238317,1,1
498,13,-0.560224,0.041572,-0.316044,-0.385106,-0.279244,1,0
483,13,-0.623093,0.021874,-0.321585,-0.257023,-0.209041,1,1
497,13,-0.614578,-0.005863,-0.321386,-0.291546,-0.184187,1,1
518,13,-0.658668,-0.096273,-0.296860,-0.325558,-0.262919,1,1
502,13,-0.650316,0.018323,-0.324859,-0.379875,-0.307092,1,1
485,13,-0.569249,-0.003953,-0.370044,-0.197258,-0.298604,1,0
493,13,-0.672023,0.017702,-0.327004,-0.356194,-0.207952,1,1
484,13,-0.669214,-0.035183,-0.370967,-0.387817,-0.326925,1,1
508,13,-0.734528,-0.064581,-0.441287,-0.416619,-0.332316,1,1
491,13,-0.608947,0.090462,-0.369358,-0.377701,-0.215197,1,0
504,13,-0.703596,0.003172,-0.298551,-0.389004,-0.266207,1,1
488,13,-0.660499,-0.041442,-0.280827,-0.270415,-0.266980,1,1
480,13,-0.649588,0.021024,-0.323876,-0.361715,-0.303087,1,1
506,13,-0.675276,-0.059831,-0.329291,-0.265550,-0.324339,1,1
517,13,-0.746958,-0.009860,-0.276524,-0.398891,-0.286462,1,1
494,13,-0.724641,-0.008552,-0.389578,-0.279022,-0.215115,1,1
512,13,-0.772011,-0.049377,-0.388383,-0.326133,-0.289567,1,1
496,13,-0.621049,-0.095808,-0.253664,-0.333308,-0.339281,1,1
514,13,-0.709910,-0.046568,-0.375894,-0.365932,-0.379664,1,1
509,13,-0.743311,-0.017618,-0.317180,-0.309676,-0.403903,1,1
513,13,-0.720200,-0.024420,-0.376330,-0.336612,-0.414607,1,1
503,13,-0.745745,-0.075520,-0.329706,-0.322363,-0.268816,1,1
481,13,-0.713267,-0.024260,-0.387607,-0.403430,-0.270799,1,1
499,13,-0.599305,-0.084982,-0.330453,-0.269804,-0.315383,1,1
487,13,-0.684801,-0.004317,-0.254805,-0.320123,-0.264489,1,1
490,13,-0.761458,0.069891,-0.403729,-0.278646,-0.344007,1,1
489,13,-0.645522,-0.075205,-0.329988,-0.293304,-0.295404,1,1
500,13,-0.786375,-0.020625,-0.417287,-0.331345,-0.326133,1,1
507,13,-0.749791,0.009850,-0.445832,-0.308643,-0.327891,1,1
516,13,-0.736557,-0.004423,-0.395144,-0.382381,-0.301973,1,1
510,13,-0.728564,0.020881,-0.339170,-0.323753,-0.275089,1,1
501,13,-0.739813,-0.142724,-0.404371,-0.328667,-0.339238,0,1
482,13,-0.655645,-0.056502,-0.282551,-0.274517,-0.270993,1,1
486,13,-0.702707,-0.050914,-0.408430,-0.275023,-0.266283,1,1
505,13,-0.723501,-0.137049,-0.355608,-0.319057,-0.384370,0,1
515,13,-0.737403,-0.107374,-0.366370,-0.370685,-0.327153,1,1
521,14,-0.711147,0.030355,-0.362999,-0.298381,-0.254040,1,1
525,14,-0.667735,0.016910,-0.253786,-0.312839,-0.178746,1,1
542,14,-0.750356,-0.037875,-0.377300,-0.306733,-0.363549,1,1
520,14,-0.604258,0.083425,-0.294402,-0.358456,-0.334385,1,0
541,14,-0.773554,0.004748,-0.391325,-0.384908,-0.306397,1,1
548,14,-0.739701,-0.111009,-0.408803,-0.365262,-0.305007,0,1
528,14,-0.703368,-0.025272,-0.356806,-0.306677,-0.256439,1,1
531,14,-0.639092,0.014779,-0.287304,-0.306978,-0.236277,1,1
551,14,-0.713462,-0.040200,-0.415856,-0.421201,-0.272737,1,1
539,14,-0.636490,-0.007859,-0.274766,-0.266318,-0.316287,1,1
523,14,-0.638062,-0.067106,-0.367497,-0.232521,-0.234833,1,1
536,14,-0.592821,-0.063065,-0.271098,-0.240373,-0.179117,1,1
524,14,-0.626641,0.016800,-0.360346,-0.379788,-0.355394,1,1
538,14,-0.642427,0.024471,-0.375265,-0.253463,-0.312915,1,1
543,14,-0.621581,-0.006191,-0.304306,-0.376669,-0.382783,1,1
533,14,-0.648476,0.019845,-0.301152,-0.314876,-0.271371,1,1
537,14,-0.547728,-0.037790,-0.351324,-0.336304,-0.203389,1,0
550,14,-0.707962,-0.000925,-0.343470,-0.297226,-0.329925,1,1
540,14,-0.694259,-0.028753,-0.348293,-0.379926,-0.308086,1,1
535,14,-0.544060,0.048610,-0.239245,-0.338325,-0.247178,1,0
532,14,-0.733630,0.062501,-0.346063,-0.224304,-0.252341,1,1
558,14,-0.702464,-0.054956,-0.408026,-0.342538,-0.382574,1,1
555,14,-0.762613,-0.104643,-0.390004,-0.409029,-0.400931,0,1
554,14,-0.683670,-0.039438,-0.331970,-0.371316,-0.307457,1,1
547,14,-0.754148,-0.150360,-0.382712,-0.411211,-0.389417,0,1
557,14,-0.780826,-0.087852,-0.420428,-0.281695,-0.400198,0,1
549,14,-0.763263,-0.062241,-0.424278,-0.337779,-0.354940,1,1
522,14,-0.708199,0.002596,-0.403143,-0.259281,-0.356623,1,1
552,14,-0.706926,-0.022413,-0.380210,-0.379211,-0.344115,1,1
534,14,-0.670219,0.007458,-0.252398,-0.307596,-0.263638,1,1
530,14,-0.565192,0.067864,-0.264837,-0.264149,-0.276830,1,0
553,14,-0.754427,-0.068624,-0.460202,-0.385455,-0.314226,1,1
527,14,-0.633593,0.090143,-0.268606,-0.208275,-0.263716,1,0
556,14,-0.791996,-0.035480,-0.390216,-0.337328,-0.355760,0,1
559,14,-0.701276,-0.031875,-0.340835,-0.305495,-0.369991,1,1
545,14,-0.859136,0.039973,-0.388078,-0.391298,-0.341861,0,1
546,14,-0.748746,-0.020537,-0.345892,-0.400786,-0.339466,1,1
544,14,-0.711691,-0.065990,-0.419362,-0.349748,-0.263101,1,1
529,14,-0.677050,0.001993,-0.376651,-0.303952,-0.201124,1,1
526,14,-0.639472,0.013731,-0.309461,-0.275463,-0.266131,1,1
585,15,-0.724763,-0.011748,-0.310859,-0.285721,-0.358778,1,1
579,15,-0.672494,0.049655,-0.264159,-0.267883,-0.195112,1,1
572,15,-0.595937,0.062075,-0.331645,-0.260302,-0.198468,1,0
575,15,-0.667861,0.012487,-0.353299,-0.357967,-0.266010,1,1
577,15,-0.595862,0.025819,-0.373429,-0.229916,-0.228645,1,1
591,15,-0.646652,0.011092,-0.479108,-0.333982,-0.310259,1,1
563,15,-0.628142,0.046870,-0.308756,-0.294287,-0.277291,1,1
566,15,-0.590910,0.017579,-0.351115,-0.266940,-0.231198,1,1
594,15,-0.839954,-0.091100,-0.366594,-0.284792,-0.317367,0,1
573,15,-0.663668,0.031699,-0.290918,-0.420782,-0.168734,1,1
597,15,-0.782054,0.011879,-0.321178,-0.379946,-0.367588,0,1
562,15,-0.542934,0.064637,-0.364315,-0.388198,-0.281500,1,0
567,15,-0.647092,0.047382,-0.302697,-0.257413,-0.245536,1,1
583,15,-0.697179,-0.062764,-0.441422,-0.354237,-0.331042,1,1
584,15,-0.730213,-0.080038,-0.365538,-0.322024,-0.401850,1,1
595,15,-0.774291,-0.055514,-0.412145,-0.375574,-0.360505,0,1
598,15,-0.776590,-0.096258,-0.349578,-0.336705,-0.349780,0,1
570,15,-0.626555,-0.051862,-0.254409,-0.345862,-0.234146,1,1
560,15,-0.604638,0.053561,-0.285112,-0.237606,-0.319165,1,1
568,15,-0.637093,-0.097816,-0.302120,-0.300539,-0.285842,1,1
596,15,-0.797010,-0.084166,-0.453026,-0.331932,-0.289183,0,1
565,15,-0.607467,-0.021704,-0.335243,-0.313032,-0.190849,1,1
586,15,-0.670437,0.013664,-0.354620,-0.342449,-0.172695,1,1
589,15,-0.713530,-0.073389,-0.396447,-0.391812,-0.363081,1,1
590,15,-0.709972,-0.102752,-0.331783,-0.320597,-0.269493,1,1
574,15,-0.579410,-0.000453,-0.378993,-0.216254,-0.232788,1,1
561,15,-0.573270,0.055523,-0.311111,-0.202591,-0.197272,1,0
582,15,-0.674474,-0.053356,-0.358936,-0.412318,-0.313208,1,1
578,15,-0.625509,0.005289,-0.332412,-0.239227,-0.235604,1,1
593,15,-0.648771,0.014813,-0.337844,-0.297490,-0.363523,1,1
580,15,-0.689539,0.004610,-0.368868,-0.333669,-0.278870,1,1
569,15,-0.507920,0.063646,-0.338184,-0.293534,-0.237134,1,0
599,15,-0.703629,-0.059174,-0.365037,-0.408994,-0.331481,1,1
587,15,-0.789819,-0.040686,-0.380530,-0.406085,-0.360646,0,1
581,15,-0.769609,-0.041040,-0.394827,-0.255580,-0.417002,0,1
576,15,-0.620936,-0.057438,-0.281124,-0.214522,-0.314766,1,1
588,15,-0.664950,-0.026618,-0.320139,-0.398668,-0.334634,1,1
592,15,-0.711436,-0.092963,-0.499446,-0.382559,-0.310840,1,1
564,15,-0.508412,0.049596,-0.299998,-0.270325,-0.293266,1,0
571,15,-0.666547,-0.116747,-0.301649,-0.326533,-0.249499,1,1
629,16,-0.669620,-0.155932,-0.448675,-0.419885,-0.317311,0,1
605,16,-0.618755,0.061280,-0.362506,-0.234811,-0.209352,1,1
616,16,-0.612116,0.077684,-0.344627,-0.294548,-0.276727,1,0
626,16,-0.705433,-0.097825,-0.478007,-0.406247,-0.353557,0,1
614,16,-0.521755,-0.014865,-0.374648,-0.184050,-0.202911,1,0
622,16,-0.726923,-0.124794,-0.414345,-0.314915,-0.285752,0,1
638,16,-0.591143,-0.108568,-0.342271,-0.304472,-0.289375,1,1
624,16,-0.730441,-0.016455,-0.345912,-0.376941,-0.352064,1,1
617,16,-0.562520,0.042420,-0.340755,-0.239663,-0.225912,1,0
637,16,-0.722945,-0.077315,-0.419921,-0.337257,-0.360313,0,1
612,16,-0.614924,0.008351,-0.265371,-0.288823,-0.223703,1,1
608,16,-0.628560,-0.026480,-0.288881,-0.282777,-0.207129,1,1
631,16,-0.785668,0.007426,-0.455025,-0.294456,-0.255187,0,1
602,16,-0.596528,-0.092376,-0.290514,-0.330674,-0.237590,1,1
639,16,-0.675345,-0.036161,-0.353889,-0.362214,-0.275847,1,1
623,16,-0.721687,0.052625,-0.431304,-0.322772,-0.342090,1,1
636,16,-0.687386,-0.043557,-0.315471,-0.284572,-0.325817,1,1
619,16,-0.555863,-0.006644,-0.266502,-0.206047,-0.254280,1,0
613,16,-0.588379,-0.028085,-0.275126,-0.207020,-0.262588,1,1
607,16,-0.621146,0.071371,-0.408877,-0.203786,-0.156849,1,1
634,16,-0.730431,-0.067527,-0.371670,-0.297071,-0.384570,0,1
618,16,-0.682842,0.054752,-0.302481,-0.246664,-0.261707,1,1
610,16,-0.540515,-0.061122,-0.252903,-0.141157,-0.267439,1,0
628,16,-0.645278,-0.020293,-0.402620,-0.369297,-0.334338,1,1
633,16,-0.709679,-0.041642,-0.280594,-0.333056,-0.238421,1,1
604,16,-0.579485,0.004473,-0.276351,-0.305215,-0.268499,1,1
630,16,-0.722116,-0.017101,-0.353650,-0.351156,-0.349823,1,1
606,16,-0.624645,-0.054830,-0.257497,-0.277332,-0.244448,1,1
600,16,-0.564446,0.011693,-0.289360,-0.240538,-0.158230,1,0
601,16,-0.603567,-0.037619,-0.256483,-0.244176,-0.324617,1,1
635,16,-0.689165,0.023649,-0.459790,-0.405907,-0.283995,1,1
620,16,-0.713841,-0.004443,-0.399688,-0.367174,-0.237478,1,1
621,16,-0.750842,-0.115686,-0.369541,-0.304004,-0.353125,0,1
632,16,-0.720687,0.002108,-0.412280,-0.391460,-0.352583,1,1
625,16,-0.654985,-0.096574,-0.368957,-0.282281,-0.315297,1,1
615,16,-0.636076,-0.098137,-0.264734,-0.337357,-0.194552,1,1
603,16,-0.630046,0.072693,-0.225183,-0.266104,-0.273926,1,1
627,16,-0.764856,-0.070497,-0.336018,-0.314774,-0.273865,0,1
609,16,-0.569443,0.077748,-0.350002,-0.243660,-0.151489,1,0
611,16,-0.656004,0.033646,-0.240085,-0.264150,-0.301243,1,1
678,17,-0.647101,0.004623,-0.366967,-0.303461,-0.373725,1,1
659,17,-0.588863,-0.048533,-0.259379,-0.284838,-0.201423,1,1
657,17,-0.521188,-0.046160,-0.224782,-0.259843,-0.193138,1,0
676,17,-0.628616,-0.043495,-0.382205,-0.434412,-0.299371,1,1
647,17,-0.481638,0.038504,-0.257913,-0.288419,-0.221172,1,0
653,17,-0.560683,0.041039,-0.320117,-0.249780,-0.238968,1,0
663,17,-0.709473,-0.018364,-0.372858,-0.220342,-0.255222,1,1
642,17,-0.582794,0.019817,-0.350399,-0.277686,-0.284462,1,1
650,17,-0.531383,-0.045639,-0.308930,-0.250938,-0.240698,1,0
649,17,-0.523568,-0.000785,-0.302224,-0.288703,-0.235510,1,0
654,17,-0.601045,0.007307,-0.264018,-0.286383,-0.224013,1,1
677,17,-0.745019,-0.013801,-0.386306,-0.305857,-0.281835,0,1
675,17,-0.689760,0.006996,-0.260841,-0.362927,-0.331280,1,1
672,17,-0.658238,-0.049754,-0.448141,-0.320885,-0.317810,1,1
668,17,-0.683146,-0.112572,-0.361569,-0.353476,-0.274366,0,1
651,17,-0.548339,0.024114,-0.233447,-0.214673,-0.283548,1,0
666,17,-0.772725,-0.100735,-0.364872,-0.321521,-0.412123,0,1
652,17,-0.486128,-0.040422,-0.307384,-0.248164,-0.301900,1,0
679,17,-0.706740,-0.003383,-0.343232,-0.327149,-0.317910,1,1
665,17,-0.662756,-0.006299,-0.397397,-0.277538,-0.310637,1,1
656,17,-0.538305,0.009126,-0.249353,-0.175575,-0.239026,1,0
673,17,-0.648043,-0.062287,-0.379131,-0.300330,-0.267713,1,1
648,17,-0.509617,-0.016940,-0.349640,-0.275009,-0.276331,1,0
664,17,-0.775253,-0.045486,-0.428330,-0.320757,-0.280680,0,1
645,17,-0.557365,-0.084256,-0.239264,-0.311962,-0.186033,1,1
644,17,-0.636573,-0.018496,-0.299180,-0.336868,-0.190739,1,1
658,17,-0.613964,0.010697,-0.321828,-0.257850,-0.273300,1,1
669,17,-0.712408,-0.057515,-0.439126,-0.332767,-0.351633,1,1
655,17,-0.592553,-0.019682,-0.260442,-0.279234,-0.280018,1,1
662,17,-0.700215,-0.001669,-0.324962,-0.462377,-0.267503,1,1
640,17,-0.482425,0.027268,-0.229389,-0.248770,-0.295146,1,0
667,17,-0.586962,-0.129440,-0.365762,-0.317810,-0.272384,1,1
670,17,-0.755659,-0.100168,-0.407421,-0.336422,-0.248171,0,1
661,17,-0.666229,-0.045748,-0.320849,-0.365538,-0.377253,1,1
660,17,-0.700211,-0.090972,-0.397865,-0.416609,-0.290676,0,1
671,17,-0.725689,-0.037596,-0.384202,-0.391896,-0.280133,0,1
641,17,-0.614496,-0.004993,-0.398485,-0.178550,-0.334336,1,1
674,17,-0.683449,-0.002387,-0.281688,-0.337044,-0.317294,1,1
646,17,-0.590725,0.002815,-0.287457,-0.236598,-0.247013,1,1
643,17,-0.575189,0.011767,-0.257436,-0.254008,-0.143606,1,1
700,18,-0.725485,-0.034599,-0.307087,-0.368648,-0.378177,0,1
689,18,-0.512046,-0.034475,-0.265536,-0.306410,-0.223906,1,0
685,18,-0.542205,0.028195,-0.236896,-0.316195,-0.207715,1,0
695,18,-0.560532,0.037340,-0.343954,-0.227499,-0.211297,1,1
714,18,-0.733693,-0.098223,-0.405391,-0.386763,-0.306528,0,1
716,18,-0.610222,-0.058885,-0.404929,-0.355053,-0.342824,1,1
709,18,-0.669541,-0.063449,-0.259100,-0.323215,-0.298377,1,1
713,18,-0.668829,-0.068543,-0.304381,-0.362900,-0.246478,1,1
684,18,-0.597885,0.003590,-0.283326,-0.228995,-0.162808,1,1
712,18,-0.773682,-0.066487,-0.308105,-0.430821,-0.247826,0,1
692,18,-0.614025,-0.065201,-0.280488,-0.272949,-0.284143,1,1
682,18,-0.576880,-0.143544,-0.299696,-0.282311,-0.198215,1,1
688,18,-0.528270,-0.007207,-0.263712,-0.220549,-0.172216,1,0
697,18,-0.527901,-0.021429,-0.309670,-0.286083,-0.209175,1,0
686,18,-0.499596,-0.103154,-0.365031,-0.215601,-0.240666,1,0
683,18,-0.575648,0.023203,-0.299002,-0.290598,-0.231549,1,1
711,18,-0.590229,-0.028142,-0.404844,-0.369225,-0.323844,1,1
702,18,-0.700881,-0.027085,-0.399792,-0.392613,-0.381700,1,1
715,18,-0.638455,-0.010907,-0.329526,-0.308622,-0.350105,1,1
693,18,-0.478811,0.043701,-0.325886,-0.186164,-0.195941,1,0
719,18,-0.603347,-0.131737,-0.316967,-0.311717,-0.252648,1,1
687,18,-0.512023,-0.034921,-0.382624,-0.289722,-0.270926,1,0
717,18,-0.610610,-0.060189,-0.412663,-0.364126,-0.349689,1,1
696,18,-0.588852,-0.026663,-0.282182,-0.237144,-0.235455,1,1
690,18,-0.653322,-0.068303,-0.228148,-0.300031,-0.261870,1,1
691,18,-0.517918,0.064689,-0.319697,-0.240366,-0.271409,1,0
708,18,-0.642016,-0.005135,-0.353273,-0.392009,-0.368587,1,1
680,18,-0.580586,-0.086818,-0.208686,-0.346770,-0.292451,1,1
698,18,-0.610003,0.042089,-0.336465,-0.164527,-0.271578,1,1
704,18,-0.755946,-0.046651,-0.382651,-0.287225,-0.241793,0,1
718,18,-0.658930,-0.031077,-0.301758,-0.310965,-0.370075,1,1
710,18,-0.617553,-0.070555,-0.321416,-0.338503,-0.391705,1,1
707,18,-0.650321,-0.026917,-0.435368,-0.377381,-0.276846,1,1
694,18,-0.609445,0.070865,-0.196206,-0.232834,-0.246395,1,1
699,18,-0.579827,-0.103556,-0.339514,-0.261186,-0.175830,1,1
681,18,-0.497222,0.054115,-0.387077,-0.241262,-0.253724,1,0
701,18,-0.657473,-0.074741,-0.359674,-0.324891,-0.310449,1,1
706,18,-0.626994,-0.090331,-0.288252,-0.439455,-0.320413,1,1
703,18,-0.758834,-0.044919,-0.381122,-0.346026,-0.371400,0,1
705,18,-0.765617,0.050002,-0.312794,-0.339477,-0.268578,0,1
744,19,-0.531822,-0.094190,-0.358303,-0.392953,-0.291749,1,1
726,19,-0.595177,0.069281,-0.356266,-0.242269,-0.265663,1,1
745,19,-0.553298,-0.089864,-0.435086,-0.317118,-0.183729,1,1
757,19,-0.676608,0.064205,-0.376230,-0.320944,-0.265303,1,1
751,19,-0.606231,-0.061251,-0.389709,-0.355943,-0.388873,1,1
739,19,-0.549934,0.044049,-0.264480,-0.236123,-0.256985,1,0
746,19,-0.531405,-0.016693,-0.296413,-0.338728,-0.268437,1,1
721,19,-0.537010,0.000493,-0.341447,-0.295596,-0.174809,1,1
722,19,-0.569497,0.138549,-0.262133,-0.292375,-0.297498,1,0
737,19,-0.597239,-0.026253,-0.364400,-0.217858,-0.197830,1,1
741,19,-0.667745,0.020287,-0.410031,-0.352598,-0.297553,1,1
729,19,-0.518068,-0.030804,-0.146735,-0.217626,-0.350672,1,0
736,19,-0.606260,0.043793,-0.171375,-0.199618,-0.281006,1,1
752,19,-0.723345,0.021348,-0.369181,-0.292296,-0.327764,0,1
723,19,-0.569392,0.008148,-0.286086,-0.305645,-0.125817,1,1
728,19,-0.550802,0.026767,-0.311584,-0.351492,-0.192893,1,1
756,19,-0.801500,-0.100997,-0.286754,-0.411832,-0.376793,0,1
749,19,-0.632032,-0.044862,-0.354110,-0.369278,-0.319185,1,1
755,19,-0.664774,-0.036949,-0.309967,-0.374252,-0.294134,1,1
734,19,-0.656723,0.037152,-0.316118,-0.186375,-0.203864,1,1
740,19,-0.644978,0.015847,-0.438568,-0.335279,-0.273150,1,1
724,19,-0.569435,-0.078035,-0.242628,-0.221958,-0.195771,1,1
747,19,-0.635827,-0.059050,-0.308085,-0.301744,-0.404368,1,1
732,19,-0.503486,0.037507,-0.266665,-0.216457,-0.184900,1,0
743,19,-0.692918,-0.060879,-0.384075,-0.318917,-0.303188,1,1
748,19,-0.691750,-0.024902,-0.414344,-0.313901,-0.188307,1,1
720,19,-0.585686,0.045718,-0.289509,-0.248832,-0.159010,1,1
730,19,-0.555007,0.065373,-0.335833,-0.235324,-0.280596,1,0
750,19,-0.708840,-0.100319,-0.326213,-0.358031,-0.279773,0,1
733,19,-0.546122,-0.114382,-0.298684,-0.364224,-0.258090,1,1
759,19,-0.666510,-0.007642,-0.318745,-0.299100,-0.317532,1,1
758,19,-0.600557,-0.010160,-0.349038,-0.287484,-0.324231,1,1
735,19,-0.570485,0.052334,-0.327822,-0.250147,-0.256994,1,1
727,19,-0.596128,-0.055175,-0.252781,-0.298505,-0.249520,1,1
754,19,-0.715964,-0.050172,-0.430634,-0.391844,-0.353513,0,1
742,19,-0.591529,0.011506,-0.357865,-0.315671,-0.318502,1,1
753,19,-0.623115,0.031822,-0.348693,-0.276415,-0.382680,1,1
738,19,-0.673448,-0.024618,-0.395129,-0.223590,-0.238425,1,1
731,19,-0.654955,-0.052225,-0.302815,-0.276704,-0.179059,1,1
725,19,-0.480372,-0.042257,-0.296893,-0.197816,-0.253032,1,0
786,20,-0.770332,-0.014466,-0.364372,-0.413076,-0.349787,0,1
798,20,-0.733417,-0.079400,-0.341193,-0.232327,-0.323084,0,1
792,20,-0.754672,-0.015911,-0.390792,-0.359056,-0.323465,0,1
791,20,-0.616016,-0.108661,-0.320239,-0.420197,-0.243918,1,1
785,20,-0.678970,-0.112142,-0.441054,-0.324765,-0.234235,0,1
794,20,-0.683772,-0.003097,-0.392471,-0.371181,-0.188568,1,1
770,20,-0.546296,0.118855,-0.297252,-0.322431,-0.229335,1,0
772,20,-0.465454,-0.033993,-0.304681,-0.287142,-0.164542,1,0
769,20,-0.540881,0.058753,-0.236519,-0.255830,-0.184913,1,0
768,20,-0.483511,0.019369,-0.292094,-0.240104,-0.236666,1,0
788,20,-0.672299,-0.077852,-0.367233,-0.346639,-0.268762,1,1
779,20,-0.618289,0.041541,-0.333569,-0.253802,-0.183402,1,1
760,20,-0.583832,-0.014581,-0.312371,-0.298309,-0.271802,1,1
765,20,-0.547504,0.007625,-0.164466,-0.206211,-0.225552,1,1
763,20,-0.535513,-0.033495,-0.310384,-0.306518,-0.237463,1,1
775,20,-0.537694,-0.108272,-0.327170,-0.276758,-0.243377,1,1
793,20,-0.626858,-0.095351,-0.446692,-0.323805,-0.316078,1,1
799,20,-0.720505,-0.134125,-0.296632,-0.356705,-0.348533,0,1
795,20,-0.671530,-0.043014,-0.328373,-0.226490,-0.302163,1,1
782,20,-0.642337,-0.106740,-0.290494,-0.356536,-0.355959,1,1
766,20,-0.459911,0.040787,-0.353712,-0.248492,-0.259437,1,0
773,20,-0.521461,-0.025609,-0.358216,-0.227647,-0.305534,1,1
787,20,-0.711357,0.010254,-0.322321,-0.348596,-0.391673,1,1
797,20,-0.755067,-0.072361,-0.302053,-0.260190,-0.264942,0,1
764,20,-0.587481,-0.025922,-0.228641,-0.255660,-0.141400,1,1
778,20,-0.561524,0.046600,-0.341932,-0.264681,-0.175269,1,1
767,20,-0.572815,-0.011613,-0.279918,-0.239697,-0.267603,1,1
780,20,-0.696946,-0.018806,-0.270658,-0.333894,-0.293809,1,1
777,20,-0.501087,-0.044414,-0.260206,-0.278139,-0.181689,1,0
783,20,-0.673383,-0.034491,-0.341946,-0.299681,-0.360774,1,1
761,20,-0.524982,-0.030057,-0.362230,-0.331906,-0.247934,1,1
790,20,-0.625071,-0.009496,-0.397130,-0.354653,-0.356658,1,1
796,20,-0.666107,-0.083750,-0.405543,-0.402708,-0.278375,1,1
771,20,-0.615343,-0.061469,-0.276911,-0.259816,-0.268733,1,1
762,20,-0.574959,0.092944,-0.257592,-0.192827,-0.275083,1,0
781,20,-0.609612,-0.035295,-0.308092,-0.223273,-0.181468,1,1
774,20,-0.651860,0.021285,-0.337941,-0.280136,-0.213500,1,1
789,20,-0.691223,-0.041078,-0.377120,-0.347036,-0.307959,1,1
784,20,-0.653789,-0.001385,-0.403557,-0.357100,-0.270684,1,1
776,20,-0.658818,-0.010350,-0.258813,-0.195860,-0.183989,1,1