@relation stream_gen

@attribute global_id NUMERIC
@attribute timestamp NUMERIC
@attribute f1 NUMERIC
@attribute f2 NUMERIC
@attribute f3 NUMERIC
@attribute f4 NUMERIC
@attribute class_0 {0,1}
@attribute class_1 {0,1}

@data
37,1,-0.834725,-0.035540,0.021490,-0.065691,1,1
19,1,-0.770149,0.064564,-0.189285,0.076460,1,1
24,1,-0.820123,-0.084307,-0.087813,0.027822,1,1
33,1,-0.732742,-0.070920,-0.036700,0.015364,1,1
1,1,-0.842565,0.071041,-0.220266,0.123526,1,1
3,1,-0.897825,-0.015248,-0.079991,0.176335,1,1
25,1,-0.810353,-0.027353,0.037082,0.061971,1,1
8,1,-0.855109,-0.030799,-0.188466,0.210648,1,1
5,1,-0.811990,0.035493,-0.262391,0.162634,1,1
15,1,-0.836320,-0.018206,-0.240247,0.062663,1,1
17,1,-0.848477,0.101704,-0.145892,0.127318,1,0
6,1,-0.802134,-0.011099,-0.141258,0.145938,1,1
32,1,-0.736800,-0.102480,-0.050703,-0.029203,1,1
18,1,-0.810022,-0.002717,-0.201040,0.079974,1,1
16,1,-0.727185,-0.089824,-0.169348,0.192327,1,1
39,1,-0.792577,-0.068337,-0.119310,-0.129423,1,1
26,1,-0.778226,0.048913,-0.052332,-0.022313,1,1
22,1,-0.793081,-0.060003,-0.032443,-0.009862,1,1
20,1,-0.798698,-0.065440,-0.025109,-0.068668,1,1
11,1,-0.734582,0.044158,-0.253046,0.104682,1,1
7,1,-0.890908,0.009878,-0.204988,0.159341,1,1
14,1,-0.851770,-0.012627,0.006538,0.075262,1,1
34,1,-0.864500,-0.076074,-0.056860,0.036004,1,1
4,1,-0.803656,0.003253,-0.269389,0.082375,1,1
36,1,-0.706540,-0.031051,-0.122381,-0.061982,1,1
2,1,-0.793386,-0.033962,-0.128826,0.082718,1,1
30,1,-0.831573,-0.109991,0.035257,-0.059318,1,1
23,1,-0.769026,-0.049528,0.030686,-0.107156,1,1
28,1,-0.762900,-0.110290,-0.037646,-0.083024,1,1
13,1,-0.835178,-0.003806,-0.272025,0.032259,1,1
31,1,-0.731611,-0.116438,0.006981,-0.108031,1,1
35,1,-0.787180,0.064576,-0.017357,0.058436,1,1
27,1,-0.898982,-0.086934,-0.085823,-0.018482,1,1
9,1,-0.816235,-0.024596,-0.208062,0.079372,1,1
12,1,-0.737840,0.060350,-0.262013,0.056190,1,1
38,1,-0.816734,-0.073931,-0.023254,-0.088272,1,1
21,1,-0.825343,0.052298,0.039800,-0.052994,1,1
0,1,-0.811983,0.105957,-0.143460,0.137053,1,0
10,1,-0.773311,-0.039413,-0.201852,0.093489,1,1
29,1,-0.877396,-0.054215,-0.074632,-0.031638,1,1
55,2,-0.783042,0.025363,-0.228227,-0.057350,1,1
58,2,-0.838141,0.026879,-0.157047,0.052916,1,1
47,2,-0.810404,-0.000058,-0.237519,0.028058,1,1
56,2,-0.787603,0.054284,-0.136319,0.141644,1,1
62,2,-0.818452,-0.057577,-0.018854,0.014171,1,1
70,2,-0.827789,-0.059204,-0.010153,-0.036051,1,1
69,2,-0.791991,-0.095226,-0.005232,-0.064339,1,1
45,2,-0.806383,0.016578,-0.248337,0.112785,1,1
52,2,-0.851412,-0.078263,-0.231449,0.086341,1,1
60,2,-0.819164,-0.061209,-0.023216,-0.050451,1,1
44,2,-0.864265,0.012105,-0.111420,0.160612,1,1
57,2,-0.827253,-0.037123,-0.187313,0.111941,1,1
42,2,-0.752561,0.052541,-0.206386,0.108894,1,1
40,2,-0.895832,-0.037241,-0.259985,0.033859,1,1
54,2,-0.844824,0.032729,-0.167941,0.108367,1,1
71,2,-0.815806,-0.031046,-0.117783,-0.030950,1,1
65,2,-0.775689,-0.042425,-0.106410,-0.002315,1,1
41,2,-0.827461,-0.012709,-0.117320,0.148205,1,1
51,2,-0.814216,-0.015347,-0.189647,0.151463,1,1
73,2,-0.820961,0.061266,-0.006467,-0.053155,1,1
79,2,-0.894852,-0.157344,-0.055751,0.003999,0,1
63,2,-0.850946,0.031753,-0.092954,-0.073973,1,1
49,2,-0.737733,0.091472,-0.218120,0.082523,1,0
48,2,-0.749228,0.023042,-0.148184,0.054111,1,1
74,2,-0.805219,-0.026120,0.014806,0.003508,1,1
43,2,-0.817660,0.086005,-0.215529,0.178298,1,1
72,2,-0.845231,-0.091834,0.008192,-0.079467,1,1
76,2,-0.773636,-0.119917,-0.063379,0.053788,1,1
59,2,-0.749595,-0.069124,-0.061807,0.093175,1,1
61,2,-0.880670,-0.084900,-0.060431,-0.110299,1,1
64,2,-0.723762,-0.021751,-0.137303,-0.019392,1,1
68,2,-0.705140,-0.027589,-0.104875,-0.076095,1,1
67,2,-0.840488,-0.086752,-0.024125,-0.036560,1,1
77,2,-0.911411,-0.114894,-0.080048,0.116178,0,1
66,2,-0.780834,-0.027524,-0.012514,0.024763,1,1
75,2,-0.831151,-0.058415,-0.009114,-0.116143,1,1
78,2,-0.794455,-0.074383,-0.074923,-0.026677,1,1
50,2,-0.827597,-0.071318,-0.228400,0.079890,1,1
53,2,-0.859552,0.058341,-0.189265,0.128406,1,1
46,2,-0.740513,0.023532,-0.128859,0.113372,1,1
118,3,-0.803637,0.018544,0.071110,-0.034145,1,1
83,3,-0.814615,0.027169,-0.227976,0.097300,1,1
81,3,-0.711337,-0.070877,-0.232385,0.124641,1,1
85,3,-0.836000,0.030315,-0.226689,0.044455,1,1
117,3,-0.799801,-0.116498,-0.036204,-0.012935,1,1
105,3,-0.888101,-0.078376,0.038456,0.058776,1,1
113,3,-0.832596,0.021440,-0.097456,0.049739,1,1
91,3,-0.732014,0.027496,-0.275062,0.115628,1,1
86,3,-0.758340,0.014996,-0.135587,0.085614,1,1
104,3,-0.793524,0.008711,-0.052661,-0.023459,1,1
95,3,-0.786295,-0.044964,-0.262721,0.083973,1,1
82,3,-0.787977,-0.040205,-0.166086,0.090926,1,1
100,3,-0.852739,-0.026170,0.006940,0.002093,1,1
106,3,-0.738501,-0.035802,-0.021831,-0.044492,1,1
116,3,-0.826142,0.001186,0.045677,0.015326,1,1
101,3,-0.788084,-0.134701,-0.135470,-0.018049,1,1
89,3,-0.809047,0.046532,-0.199943,0.158892,1,1
90,3,-0.862876,0.010698,-0.221594,0.046276,1,1
112,3,-0.831699,-0.160601,-0.049105,-0.061929,0,1
99,3,-0.910327,-0.023357,-0.186032,0.133932,1,1
97,3,-0.773063,-0.040683,-0.217111,0.080416,1,1
80,3,-0.786119,-0.002277,-0.229594,0.113932,1,1
108,3,-0.781268,-0.061892,0.004994,-0.088078,1,1
102,3,-0.791052,-0.097125,-0.054673,0.007006,1,1
84,3,-0.788762,0.036485,-0.176385,0.201821,1,1
115,3,-0.872531,-0.045584,-0.016715,-0.002770,1,1
93,3,-0.776159,-0.035346,-0.165205,0.170869,1,1
92,3,-0.747382,0.045664,-0.202877,0.059890,1,1
103,3,-0.797054,-0.126650,-0.006976,-0.058211,1,1
107,3,-0.837974,-0.050501,0.015583,-0.040631,1,1
87,3,-0.907960,-0.028165,-0.156339,0.072907,1,1
94,3,-0.877677,0.007849,-0.202700,0.115191,1,1
96,3,-0.843632,0.018407,-0.154495,0.075642,1,1
111,3,-0.761712,-0.060054,0.035582,-0.100360,1,1
98,3,-0.758927,0.003214,-0.207160,0.056982,1,1
109,3,-0.805941,-0.069941,-0.023570,-0.020807,1,1
119,3,-0.855944,-0.032737,0.062286,-0.037640,1,1
114,3,-0.768576,-0.076217,-0.003849,0.031685,1,1
110,3,-0.804016,0.020665,-0.085063,-0.001108,1,1
88,3,-0.850357,-0.012203,-0.210242,0.096735,1,1
138,4,-0.931058,-0.081084,-0.147687,0.112797,1,1
124,4,-0.776414,-0.028759,-0.190373,0.136011,1,1
133,4,-0.820754,-0.117546,-0.115394,0.138639,1,1
142,4,-0.798576,-0.056967,-0.079003,0.024021,1,1
147,4,-0.801591,-0.017391,-0.101632,0.034420,1,1
152,4,-0.821241,-0.116712,-0.050404,-0.094057,1,1
145,4,-0.917268,-0.062978,-0.057750,0.073736,1,1
155,4,-0.678882,-0.109622,-0.063694,0.048240,0,1
150,4,-0.851633,-0.093582,-0.051024,-0.029027,1,1
144,4,-0.873648,-0.172350,-0.046635,-0.028123,0,1
132,4,-0.767614,0.077614,-0.179055,0.164201,1,1
139,4,-0.711760,0.051684,-0.240725,0.112104,1,1
146,4,-0.761259,-0.026988,-0.101385,-0.011945,1,1
135,4,-0.838127,-0.041834,-0.215088,0.101157,1,1
157,4,-0.845594,-0.007297,-0.031416,0.038639,1,1
125,4,-0.793701,-0.046067,-0.304063,0.052791,1,1
151,4,-0.838743,-0.077373,-0.055786,-0.090896,1,1
120,4,-0.744697,0.033427,-0.182022,0.132063,1,1
153,4,-0.836260,-0.045115,-0.014446,0.006129,1,1
137,4,-0.740580,0.014363,-0.231094,0.104740,1,1
134,4,-0.798342,0.037729,-0.190463,0.104885,1,1
127,4,-0.856978,0.032421,-0.102318,0.124176,1,1
143,4,-0.805070,-0.129882,-0.145592,-0.019669,1,1
159,4,-0.803067,-0.066695,-0.041887,-0.063933,1,1
121,4,-0.781614,0.020591,-0.123165,0.059619,1,1
126,4,-0.768154,0.047758,-0.163457,0.112935,1,1
148,4,-0.790483,-0.101307,0.002828,-0.001797,1,1
122,4,-0.775152,-0.017496,-0.243824,0.059893,1,1
136,4,-0.912839,-0.009643,-0.196980,0.077891,1,1
158,4,-0.813144,-0.106939,-0.050931,-0.007868,1,1
149,4,-0.850956,-0.037556,-0.062475,-0.018403,1,1
128,4,-0.757273,-0.035675,-0.354649,0.059913,1,1
154,4,-0.772009,-0.090078,-0.034571,-0.005192,1,1
140,4,-0.748079,-0.085501,-0.065554,-0.003305,1,1
130,4,-0.756456,0.039121,-0.199949,0.068884,1,1
156,4,-0.762509,-0.134170,-0.134096,0.084500,1,1
123,4,-0.778871,-0.034630,-0.164991,0.192513,1,1
131,4,-0.759262,-0.179404,-0.146569,0.092404,1,1
141,4,-0.740255,-0.117764,0.012111,0.026322,1,1
129,4,-0.766172,-0.043004,-0.187061,0.034325,1,1
193,5,-0.818453,-0.151753,-0.055039,-0.041598,0,1
162,5,-0.787715,0.037788,-0.089880,0.154090,1,1
160,5,-0.740233,-0.070142,-0.168632,0.114308,1,1
196,5,-0.755756,-0.004594,-0.074765,-0.012601,1,1
185,5,-0.733592,-0.077093,-0.059460,-0.082432,1,1
194,5,-0.766137,-0.077774,-0.057542,-0.015121,1,1
184,5,-0.796726,0.060954,0.024592,-0.050253,1,1
174,5,-0.896350,0.010867,-0.222220,0.184337,1,1
161,5,-0.812783,-0.005844,-0.156969,0.131204,1,1
171,5,-0.803761,-0.062445,-0.200733,0.106369,1,1
178,5,-0.814937,-0.017475,-0.209334,0.101415,1,1
183,5,-0.887673,0.005793,-0.029939,-0.040343,1,1
168,5,-0.801584,-0.064083,-0.199589,0.128643,1,1
199,5,-0.830568,-0.077253,-0.027664,0.045401,1,1
166,5,-0.799860,-0.020313,-0.090423,0.111894,1,1
169,5,-0.804391,0.051256,-0.195454,0.070382,1,1
167,5,-0.808615,-0.012076,-0.224346,0.120677,1,1
195,5,-0.814159,-0.067113,-0.095445,0.005752,1,1
192,5,-0.832774,-0.069569,-0.037492,-0.112508,1,1
197,5,-0.892740,-0.110821,-0.034699,-0.030347,1,1
181,5,-0.795173,-0.077550,-0.081531,0.004917,1,1
188,5,-0.806091,-0.143820,-0.066772,0.013306,1,1
177,5,-0.761541,-0.025547,-0.255774,0.167848,1,1
182,5,-0.755292,-0.011128,0.005345,0.008615,1,1
186,5,-0.678394,-0.067443,-0.086337,-0.002787,1,1
176,5,-0.773511,-0.033004,-0.235507,0.077798,1,1
191,5,-0.795253,-0.015627,0.046730,0.100144,1,1
180,5,-0.797607,-0.008061,0.003343,0.006788,1,1
198,5,-0.882265,-0.040521,-0.025854,-0.106806,1,1
175,5,-0.766935,-0.080995,-0.183537,0.101361,1,1
163,5,-0.792082,-0.020220,-0.148429,0.110756,1,1
173,5,-0.776934,-0.030587,-0.231776,0.237400,1,1
187,5,-0.912409,-0.017503,-0.038955,0.077925,1,1
165,5,-0.843921,-0.028621,-0.193303,0.179943,1,1
179,5,-0.762562,0.021289,-0.181018,0.152536,1,1
189,5,-0.875730,-0.038399,-0.027370,0.035764,1,1
172,5,-0.815783,0.013852,-0.105882,0.138025,1,1
190,5,-0.835784,-0.076829,-0.011831,-0.051770,1,1
170,5,-0.870561,-0.081535,-0.194416,0.069947,1,1
164,5,-0.818446,0.102370,-0.180157,0.145762,1,0
203,6,-0.769879,-0.017359,-0.234670,0.096635,1,1
208,6,-0.873917,0.007713,-0.188801,0.090451,1,1
214,6,-0.757171,0.011855,-0.205978,0.111968,1,1
223,6,-0.760140,-0.043601,-0.044224,-0.152775,1,1
213,6,-0.744260,0.058414,-0.262204,0.088250,1,1
221,6,-0.728225,-0.093957,-0.055522,-0.087431,1,1
225,6,-0.757756,-0.107004,-0.038832,0.052924,1,1
216,6,-0.819329,0.006312,-0.277293,0.040729,1,1
209,6,-0.710539,0.032015,-0.198435,0.143006,1,1
211,6,-0.811228,0.020166,-0.203156,0.142284,1,1
238,6,-0.861994,-0.014474,-0.032527,-0.036595,1,1
220,6,-0.783574,-0.084981,-0.040550,0.025988,1,1
218,6,-0.756584,-0.030977,-0.230312,0.088797,1,1
224,6,-0.791022,-0.079956,0.016665,-0.054816,1,1
222,6,-0.851731,-0.055011,-0.039200,-0.024647,1,1
231,6,-0.857575,-0.068117,0.002389,0.013460,1,1
239,6,-0.815582,-0.055871,0.010121,0.031435,1,1
215,6,-0.693811,-0.027744,-0.152681,0.065636,1,1
229,6,-0.877426,-0.024856,0.006728,-0.002975,1,1
212,6,-0.696470,0.042879,-0.186206,0.155292,1,1
236,6,-0.743663,-0.032711,-0.007972,-0.020346,1,1
210,6,-0.804005,0.053807,-0.137666,0.131125,1,1
235,6,-0.835807,-0.081555,-0.157335,0.002266,1,1
230,6,-0.865101,-0.102178,-0.062997,0.053923,1,1
206,6,-0.772065,-0.009184,-0.219649,0.126941,1,1
226,6,-0.719100,-0.098763,-0.015770,0.014485,1,1
237,6,-0.735672,-0.002303,0.050971,0.029994,1,1
205,6,-0.856039,-0.015423,-0.150902,0.223000,1,1
219,6,-0.868608,0.018166,-0.176407,0.026444,1,1
227,6,-0.841585,-0.027525,-0.019914,-0.076570,1,1
232,6,-0.795758,-0.093641,-0.042134,0.035336,1,1
202,6,-0.790864,0.020801,-0.150063,0.102480,1,1
217,6,-0.794764,-0.033863,-0.175395,0.092592,1,1
234,6,-0.757690,-0.011345,-0.011601,-0.056028,1,1
200,6,-0.817935,0.034251,-0.112214,0.125038,1,1
207,6,-0.812505,-0.020204,-0.137643,0.068352,1,1
204,6,-0.759240,0.046866,-0.236926,0.097075,1,1
233,6,-0.770126,-0.033671,-0.078851,0.001174,1,1
228,6,-0.754713,-0.086989,-0.070989,-0.053986,1,1
201,6,-0.757379,-0.070588,-0.187834,0.148202,1,1
264,7,-0.848268,-0.139394,0.061275,-0.036222,1,1
255,7,-0.708184,0.008688,-0.146972,0.155205,1,1
248,7,-0.828547,-0.007474,-0.156718,0.150633,1,1
273,7,-0.882793,-0.138808,-0.055172,-0.084472,0,1
267,7,-0.720762,-0.088746,-0.101746,-0.118661,1,1
275,7,-0.779956,-0.053385,-0.046486,-0.078985,1,1
272,7,-0.758547,-0.126124,-0.012763,-0.022338,1,1
270,7,-0.794172,-0.068306,0.024806,-0.018364,1,1
277,7,-0.872621,-0.071832,0.026569,-0.100574,1,1
252,7,-0.758297,-0.042284,-0.159155,0.012036,1,1
268,7,-0.776438,-0.041161,0.129173,-0.053344,1,1
257,7,-0.781187,-0.055218,-0.201067,0.024374,1,1
244,7,-0.805444,-0.001716,-0.163284,0.162552,1,1
258,7,-0.762383,-0.067985,-0.157829,0.125602,1,1
250,7,-0.869422,-0.083468,-0.124219,0.096261,1,1
256,7,-0.797899,-0.073787,-0.190306,0.080650,1,1
261,7,-0.796589,0.040286,0.046254,-0.058047,1,1
262,7,-0.780577,-0.050287,-0.014294,-0.055526,1,1
242,7,-0.697856,0.092355,-0.148166,0.117286,1,0
278,7,-0.826587,-0.089176,-0.070448,-0.073837,1,1
259,7,-0.845433,0.089977,-0.146331,0.126084,1,0
241,7,-0.792398,-0.062886,-0.148469,0.107600,1,1
254,7,-0.789055,-0.104085,-0.130534,0.064653,1,1
253,7,-0.811715,0.017837,-0.250731,0.117107,1,1
276,7,-0.782076,0.012034,-0.069331,-0.068471,1,1
274,7,-0.830186,-0.110682,-0.029567,-0.021111,1,1
260,7,-0.756891,-0.087004,0.088385,-0.006414,1,1
251,7,-0.815877,0.064621,-0.205018,0.087868,1,1
247,7,-0.728130,0.024587,-0.236379,0.161702,1,1
246,7,-0.714830,0.113567,-0.075879,0.125720,1,0
266,7,-0.816818,-0.030532,-0.076155,0.012634,1,1
245,7,-0.889424,-0.124677,-0.153879,0.068285,1,1
269,7,-0.775080,-0.122451,-0.064659,-0.064425,1,1
240,7,-0.862388,0.029750,-0.131592,0.066607,1,1
249,7,-0.807264,0.036768,-0.280601,0.066946,1,1
279,7,-0.845760,-0.055709,-0.080192,0.113778,1,1
271,7,-0.855480,-0.036782,0.001332,-0.023497,1,1
243,7,-0.677463,-0.049061,-0.194709,0.181318,1,1
263,7,-0.740433,-0.032505,-0.000457,-0.067465,1,1
265,7,-0.828324,-0.123143,-0.015429,0.049582,1,1
291,8,-0.794712,0.017645,-0.209211,0.093211,1,1
305,8,-0.787156,-0.073317,0.053992,-0.008054,1,1
310,8,-0.753678,-0.100694,-0.014744,-0.045738,1,1
303,8,-0.805324,0.023452,-0.089046,-0.070830,1,1
281,8,-0.813765,0.002544,-0.107102,0.158532,1,1
314,8,-0.799908,-0.094764,-0.107114,0.035586,1,1
313,8,-0.862813,-0.042759,0.010527,-0.044441,1,1
293,8,-0.819495,0.033145,-0.217057,0.062933,1,1
280,8,-0.846484,0.053632,-0.127964,0.069481,1,1
298,8,-0.809869,-0.071819,-0.181937,0.037319,1,1
292,8,-0.801771,0.011161,-0.107583,0.049444,1,1
295,8,-0.778760,-0.029424,-0.249172,0.169334,1,1
282,8,-0.856234,-0.046967,-0.137655,0.173335,1,1
318,8,-0.779615,-0.073760,0.048573,0.009698,1,1
306,8,-0.771523,-0.048400,0.033236,-0.004715,1,1
312,8,-0.814286,-0.068890,0.021411,-0.008242,1,1
294,8,-0.724059,-0.036763,-0.197151,0.091714,1,1
311,8,-0.853776,-0.089265,0.031811,-0.075949,1,1
290,8,-0.706453,0.020744,-0.202741,0.069792,1,1
317,8,-0.823810,-0.021245,-0.022683,0.017140,1,1
284,8,-0.815823,0.104464,-0.121522,0.228851,1,0
297,8,-0.800070,0.079464,-0.135311,0.135492,1,1
299,8,-0.784431,-0.023653,-0.191685,0.085225,1,1
287,8,-0.806438,-0.026330,-0.177151,0.040907,1,1
301,8,-0.781303,-0.021028,0.013109,-0.002463,1,1
307,8,-0.681358,-0.035377,-0.072223,-0.035426,1,1
296,8,-0.765506,0.045127,-0.140700,0.143325,1,1
283,8,-0.800782,-0.021444,-0.236795,0.096932,1,1
304,8,-0.786899,-0.105120,-0.063533,0.022714,1,1
300,8,-0.861976,0.033552,0.056224,-0.008489,1,1
319,8,-0.802150,-0.241047,-0.123683,0.114267,0,1
315,8,-0.788480,-0.105025,-0.053265,-0.035133,1,1
286,8,-0.789879,-0.037970,-0.242546,0.131633,1,1
289,8,-0.754457,0.042365,-0.126133,0.115642,1,1
285,8,-0.760223,-0.064233,-0.209347,0.140349,1,1
288,8,-0.783598,-0.012555,-0.206978,0.195980,1,1
302,8,-0.756608,0.021825,-0.016617,0.032810,1,1
309,8,-0.809043,-0.086575,-0.020703,0.096543,1,1
308,8,-0.918586,-0.045748,-0.085034,-0.046260,1,1
316,8,-0.717133,-0.065214,-0.085684,0.042040,1,1
352,9,-0.874081,-0.057457,-0.052479,0.047791,1,1
331,9,-0.762159,-0.009669,-0.155032,0.104018,1,1
349,9,-0.855432,-0.118959,-0.078377,-0.136453,1,1
327,9,-0.742147,-0.000259,-0.268453,0.115710,1,1
357,9,-0.874444,-0.091918,0.026835,-0.024799,1,1
338,9,-0.748766,-0.008747,-0.152350,0.071160,1,1
344,9,-0.793201,-0.140573,0.039730,0.008734,1,1
353,9,-0.831657,-0.146670,-0.069792,-0.063353,0,1
345,9,-0.751485,-0.057263,-0.050170,-0.041154,1,1
354,9,-0.828716,-0.034236,-0.074172,-0.055861,1,1
324,9,-0.838418,0.087227,-0.138977,0.121508,1,0
358,9,-0.781351,-0.050785,-0.065845,-0.113733,1,1
346,9,-0.817435,0.010716,0.044096,-0.072774,1,1
359,9,-0.794236,-0.065994,-0.089193,-0.031408,1,1
330,9,-0.775388,-0.011589,-0.112719,0.030881,1,1
322,9,-0.752138,0.033274,-0.084538,0.070074,1,1
336,9,-0.823622,0.083080,-0.219760,0.083374,1,1
335,9,-0.710845,0.021971,-0.182632,0.109185,1,1
339,9,-0.740015,0.064475,-0.052079,0.138711,1,1
328,9,-0.853907,-0.006664,-0.143861,0.139462,1,1
351,9,-0.859417,0.028573,-0.080586,-0.034205,1,1
334,9,-0.783495,-0.079306,-0.111527,0.069721,1,1
355,9,-0.823607,-0.045060,0.009142,-0.063455,1,1
337,9,-0.875030,-0.055249,-0.173071,0.055306,1,1
347,9,-0.791972,-0.069870,-0.119443,-0.080375,1,1
325,9,-0.791368,0.013563,-0.144080,0.111919,1,1
348,9,-0.799358,-0.112735,-0.021208,-0.038787,1,1
321,9,-0.760258,0.024959,-0.155275,0.164202,1,1
332,9,-0.787130,0.048809,-0.134227,0.080814,1,1
326,9,-0.757361,0.001950,-0.039378,0.178973,1,1
320,9,-0.778609,0.096140,-0.198488,0.087074,1,0
343,9,-0.770122,-0.007086,-0.009716,0.005277,1,1
341,9,-0.845258,-0.047166,-0.004569,0.029347,1,1
329,9,-0.741222,0.074102,-0.235602,0.050579,1,1
323,9,-0.762091,-0.003789,-0.205983,0.144329,1,1
356,9,-0.809062,-0.080766,-0.056679,0.110549,1,1
340,9,-0.698329,-0.161639,-0.046990,-0.033626,0,1
350,9,-0.768267,0.010334,-0.066946,0.014116,1,1
333,9,-0.781429,0.117706,-0.109451,0.110798,1,0
342,9,-0.889898,-0.105729,-0.014407,-0.041146,1,1
374,10,-0.900657,0.000479,-0.180576,0.114127,1,1
397,10,-0.832548,-0.063923,0.044994,-0.009608,1,1
385,10,-0.778975,-0.041774,-0.040319,-0.040270,1,1
364,10,-0.754610,-0.050177,-0.241081,0.133997,1,1
378,10,-0.758736,0.089442,-0.166456,0.057289,1,0
369,10,-0.773697,-0.120973,-0.186182,0.089152,1,1
377,10,-0.789033,-0.080431,-0.140641,0.093958,1,1
396,10,-0.841934,-0.138798,-0.032999,-0.005699,1,1
380,10,-0.833370,-0.068105,0.001389,-0.133944,1,1
390,10,-0.861314,-0.132945,-0.035423,0.009108,1,1
391,10,-0.776532,-0.051986,0.013249,0.025925,1,1
399,10,-0.773823,0.010433,0.055164,0.034578,1,1
392,10,-0.827181,-0.031132,-0.017357,-0.034655,1,1
386,10,-0.849501,-0.008814,0.029284,-0.030871,1,1
376,10,-0.784599,-0.078952,-0.196396,0.066793,1,1
388,10,-0.849716,-0.020890,-0.059270,-0.072669,1,1
384,10,-0.883472,-0.066089,-0.053511,0.036994,1,1
379,10,-0.764504,0.053564,-0.172066,0.142698,1,1
361,10,-0.798406,-0.017284,-0.196060,0.150319,1,1
362,10,-0.820823,0.005749,-0.149728,0.164604,1,1
360,10,-0.771419,0.011381,-0.161487,0.161293,1,1
365,10,-0.697081,0.015755,-0.233667,0.112701,1,1
368,10,-0.836574,-0.079027,-0.213894,0.055191,1,1
387,10,-0.861820,0.041247,0.035942,-0.056809,1,1
375,10,-0.821287,-0.072502,-0.224124,0.159949,1,1
393,10,-0.860864,-0.138456,-0.025469,0.027191,0,1
383,10,-0.879724,-0.021994,0.036127,-0.059480,1,1
370,10,-0.809893,0.034719,-0.183667,0.170481,1,1
398,10,-0.819570,-0.147330,0.021059,-0.034070,0,1
394,10,-0.819278,-0.018635,-0.113819,-0.018889,1,1
367,10,-0.841837,-0.028083,-0.215379,0.077658,1,1
373,10,-0.722558,0.074141,-0.159880,0.165302,1,0
389,10,-0.766503,-0.039431,-0.096982,-0.033250,1,1
363,10,-0.766770,-0.019697,-0.189826,0.125071,1,1
382,10,-0.954821,-0.141719,-0.031369,0.020884,0,1
366,10,-0.792530,-0.029216,-0.195809,0.128241,1,1
372,10,-0.826151,0.047642,-0.186506,0.107348,1,1
371,10,-0.808400,0.038926,-0.106758,0.114033,1,1
395,10,-0.786852,-0.189456,-0.090071,-0.000939,0,1
381,10,-0.843691,-0.101498,-0.068850,-0.124463,1,1
423,11,-0.803797,-0.013717,-0.092267,-0.028346,1,1
416,11,-0.857736,0.093001,-0.199443,0.129228,1,0
433,11,-0.841612,-0.064013,-0.014008,-0.038876,1,1
426,11,-0.756114,-0.106255,0.005539,-0.044006,1,1
412,11,-0.838245,0.042359,-0.233585,0.129638,1,1
415,11,-0.910371,-0.105978,-0.156982,0.096313,1,1
436,11,-0.749899,0.031962,-0.009693,-0.012614,1,1
403,11,-0.858094,-0.043020,-0.164980,0.070804,1,1
404,11,-0.894449,-0.037617,-0.146890,-0.003468,1,1
424,11,-0.773132,-0.108533,-0.036378,0.005215,1,1
422,11,-0.726390,-0.104958,-0.046130,-0.043572,1,1
413,11,-0.796018,-0.017327,-0.225008,0.055577,1,1
411,11,-0.759730,-0.118950,-0.249669,0.150638,1,1
405,11,-0.765443,-0.041886,-0.280300,0.079521,1,1
421,11,-0.686678,-0.042286,-0.104546,-0.017157,1,1
437,11,-0.823442,-0.017685,0.085186,-0.069196,1,1
428,11,-0.837955,-0.137290,-0.072997,-0.082188,1,1
406,11,-0.823079,0.048734,-0.121485,0.099583,1,1
401,11,-0.749826,0.062403,-0.221984,0.053211,1,1
439,11,-0.740496,-0.176829,-0.020620,-0.015279,0,1
419,11,-0.763435,0.002108,-0.180114,0.072825,1,1
408,11,-0.661291,0.015346,-0.268310,0.137289,1,0
434,11,-0.795883,-0.135388,0.019455,-0.001456,1,1
432,11,-0.832652,-0.059190,-0.099605,-0.092713,1,1
407,11,-0.755985,-0.082701,-0.210942,0.117638,1,1
435,11,-0.744935,-0.018953,-0.044032,-0.001736,1,1
438,11,-0.843546,-0.040201,0.005297,0.037885,1,1
429,11,-0.934204,-0.057964,0.057873,0.057336,0,1
427,11,-0.823772,-0.065225,-0.040213,0.056348,1,1
420,11,-0.779849,-0.035032,-0.088037,-0.129432,1,1
402,11,-0.748793,-0.057851,-0.167717,0.101232,1,1
425,11,-0.902171,-0.072064,-0.063638,0.029614,1,1
418,11,-0.827702,-0.015592,-0.204524,0.177147,1,1
431,11,-0.774359,-0.000239,-0.029957,-0.012870,1,1
430,11,-0.859068,-0.071323,0.012219,-0.042423,1,1
409,11,-0.800140,0.062521,-0.187149,0.046769,1,1
417,11,-0.714461,0.038763,-0.169687,0.102280,1,1
410,11,-0.847994,0.022367,-0.133865,0.181086,1,1
400,11,-0.752201,0.019285,-0.227341,0.218791,1,1
414,11,-0.913581,0.051303,-0.095306,0.184954,1,0
440,12,-0.821814,0.027693,-0.198758,0.081430,1,1
464,12,-0.739622,-0.076122,0.066262,-0.035911,1,1
477,12,-0.782923,-0.038310,-0.023273,0.081835,1,1
454,12,-0.823977,-0.029425,-0.213176,0.124048,1,1
470,12,-0.822067,-0.049732,-0.019335,-0.109241,1,1
465,12,-0.847749,-0.003280,-0.042683,-0.019515,1,1
474,12,-0.835215,-0.084709,0.020117,-0.031378,1,1
452,12,-0.907565,0.060701,-0.191598,0.132006,1,0
461,12,-0.764643,-0.008129,-0.029941,-0.042948,1,1
472,12,-0.783279,0.005496,-0.040425,-0.088260,1,1
462,12,-0.713007,-0.017869,0.003383,-0.064289,1,1
444,12,-0.790581,0.068264,-0.196092,0.109052,1,1
476,12,-0.809638,-0.024914,-0.024869,-0.045970,1,1
445,12,-0.736416,0.014072,-0.270052,0.017674,1,1
466,12,-0.732177,-0.065906,-0.038240,-0.070205,1,1
471,12,-0.809570,0.015107,-0.019601,-0.011332,1,1
446,12,-0.728880,-0.020210,-0.177876,0.091838,1,1
463,12,-0.820041,0.054030,-0.018778,-0.025015,1,1
441,12,-0.816028,0.050750,-0.195605,0.160841,1,1
467,12,-0.847055,-0.104594,-0.104250,-0.017103,1,1
473,12,-0.801643,-0.062017,-0.053054,0.009916,1,1
459,12,-0.733070,-0.024050,-0.144982,0.145113,1,1
450,12,-0.777702,0.018000,-0.189561,0.140078,1,1
442,12,-0.794283,0.040184,-0.172106,0.105790,1,1
479,12,-0.797608,-0.055214,-0.114134,-0.008010,1,1
475,12,-0.713405,0.013226,0.029765,0.028079,1,1
456,12,-0.798671,-0.017841,-0.130132,0.125244,1,1
468,12,-0.765611,-0.150817,-0.104453,-0.101824,0,1
443,12,-0.742360,0.115694,-0.158317,0.046000,1,0
449,12,-0.797635,0.034805,-0.198089,0.096189,1,1
447,12,-0.832079,-0.048450,-0.210040,0.090579,1,1
453,12,-0.829654,0.052634,-0.248026,0.137543,1,1
451,12,-0.739145,0.080201,-0.134459,0.127026,1,0
460,12,-0.817050,-0.089434,-0.054923,0.030862,1,1
448,12,-0.788925,-0.010730,-0.079362,0.076849,1,1
469,12,-0.829287,-0.090165,-0.079698,-0.075486,1,1
455,12,-0.785568,0.047269,-0.138128,0.128254,1,1
458,12,-0.811648,0.000020,-0.173379,0.082739,1,1
457,12,-0.856579,0.018291,-0.159975,0.123295,1,1
478,12,-0.832334,-0.039672,0.022057,-0.104709,1,1
486,13,-0.764439,-0.027619,-0.167661,0.051254,1,1
504,13,-0.861699,-0.078374,-0.034405,-0.016602,1,1
488,13,-0.805868,-0.004690,-0.140271,0.040495,1,1
503,13,-0.754651,-0.055256,-0.079901,-0.050074,1,1
502,13,-0.848994,-0.064326,0.039648,-0.042758,1,1
500,13,-0.800242,-0.018403,0.054080,-0.034569,1,1
512,13,-0.864207,-0.075616,-0.030078,-0.040327,1,1
511,13,-0.815550,-0.058880,-0.053545,-0.037551,1,1
497,13,-0.835152,0.050288,-0.169755,0.102228,1,1
515,13,-0.820057,-0.071774,-0.074113,-0.059953,1,1
501,13,-0.744495,-0.138764,-0.121481,0.015278,1,1
493,13,-0.816871,-0.060906,-0.091525,0.086250,1,1
519,13,-0.776111,0.014077,0.045221,-0.013197,1,1
513,13,-0.813436,-0.082664,-0.012562,0.029627,1,1
509,13,-0.816075,-0.063135,-0.069225,-0.011102,1,1
495,13,-0.842907,-0.031623,-0.146752,0.113310,1,1
484,13,-0.791013,0.022120,-0.193704,0.149657,1,1
499,13,-0.766530,-0.057649,-0.287874,0.131376,1,1
506,13,-0.867433,-0.006302,0.062767,-0.042717,1,1
481,13,-0.838204,0.087270,-0.192114,0.153176,1,0
507,13,-0.889495,-0.024895,-0.059548,-0.024860,1,1
485,13,-0.835360,0.024797,-0.212742,0.092230,1,1
517,13,-0.814769,0.031866,0.008392,-0.053976,1,1
492,13,-0.770620,0.032726,-0.223193,0.108494,1,1
489,13,-0.815007,0.049949,-0.216178,0.165964,1,1
483,13,-0.791068,-0.064287,-0.192313,0.153670,1,1
491,13,-0.868923,0.079936,-0.228265,0.099545,1,0
505,13,-0.765671,0.051909,-0.023867,0.090534,1,1
480,13,-0.825973,-0.047698,-0.139543,0.138522,1,1
518,13,-0.783100,-0.107436,0.017141,-0.067090,1,1
508,13,-0.808474,0.010715,0.030092,-0.034540,1,1
496,13,-0.814067,-0.012874,-0.216079,0.097086,1,1
516,13,-0.706463,-0.093554,-0.027581,-0.015534,1,1
498,13,-0.863000,-0.046739,-0.187401,0.152945,1,1
510,13,-0.783029,-0.064299,-0.064328,0.039269,1,1
490,13,-0.777746,-0.019183,-0.045119,0.155864,1,1
487,13,-0.770136,-0.003793,-0.176601,0.209064,1,1
494,13,-0.837992,0.059474,-0.134228,-0.011064,1,1
482,13,-0.722801,-0.012743,-0.201094,0.149731,1,1
514,13,-0.833193,-0.092384,-0.043507,-0.029918,1,1
523,14,-0.800931,0.002703,-0.210476,0.162447,1,1
534,14,-0.835150,0.131862,-0.182430,0.004982,1,0
551,14,-0.775000,-0.009196,-0.010321,-0.017985,1,1
549,14,-0.744149,-0.110967,-0.033253,-0.081102,1,1
543,14,-0.794238,-0.009714,0.021527,0.015006,1,1
537,14,-0.862640,0.069586,-0.151381,0.104546,1,1
544,14,-0.725558,-0.062044,-0.034834,-0.057623,1,1
535,14,-0.800530,-0.067806,-0.142310,0.097036,1,1
532,14,-0.724955,-0.006072,-0.162035,0.101709,1,1
539,14,-0.777759,-0.006364,-0.269906,0.108357,1,1
528,14,-0.772470,-0.049350,-0.237053,0.110723,1,1
540,14,-0.725153,-0.016613,-0.066286,-0.037527,1,1
526,14,-0.682231,-0.044764,-0.239154,0.099611,1,1
554,14,-0.844393,-0.023289,0.052336,-0.093674,1,1
527,14,-0.769984,-0.029411,-0.152418,0.101370,1,1
553,14,-0.826069,-0.009268,0.103462,0.063283,1,1
529,14,-0.792804,-0.024271,-0.212502,0.057972,1,1
533,14,-0.804281,-0.027023,-0.243958,0.168334,1,1
550,14,-0.836464,-0.097671,0.011683,0.001367,1,1
531,14,-0.860337,-0.088847,-0.180726,0.079674,1,1
525,14,-0.760131,0.006150,-0.086316,0.129678,1,1
545,14,-0.765996,-0.021841,-0.014632,-0.096832,1,1
552,14,-0.808853,-0.106626,-0.117413,0.006098,1,1
524,14,-0.773449,-0.071251,-0.206725,0.045813,1,1
530,14,-0.782988,-0.029040,-0.226725,0.068119,1,1
548,14,-0.806628,-0.020680,0.051800,0.002341,1,1
547,14,-0.810339,-0.122171,0.021045,-0.161673,1,1
556,14,-0.796011,-0.106297,-0.119176,-0.048893,1,1
521,14,-0.833064,0.061071,-0.198960,0.123721,1,1
546,14,-0.834032,0.028962,-0.018261,-0.038914,1,1
522,14,-0.787380,0.062187,-0.282221,0.070545,1,1
542,14,-0.747879,-0.121139,-0.080523,-0.036594,1,1
536,14,-0.743627,0.063362,-0.262857,0.105990,1,1
541,14,-0.793459,-0.062234,-0.019110,-0.032496,1,1
538,14,-0.733620,-0.131322,-0.152517,0.146965,1,1
558,14,-0.715510,-0.097133,0.030092,-0.077178,1,1
559,14,-0.786228,-0.018793,0.051443,-0.025891,1,1
557,14,-0.867501,-0.102306,0.046212,-0.046227,1,1
555,14,-0.805003,-0.111506,-0.009114,-0.018311,1,1
520,14,-0.730442,0.049264,-0.172721,0.125727,1,1
564,15,-0.763510,0.113313,-0.215848,0.071059,1,0
574,15,-0.814147,-0.003027,-0.171043,0.056866,1,1
562,15,-0.747500,0.031773,-0.195600,0.114231,1,1
597,15,-0.820347,-0.122444,0.027965,-0.103153,1,1
573,15,-0.767456,0.082877,-0.255286,0.167656,1,1
561,15,-0.795313,-0.050150,-0.131754,0.081400,1,1
589,15,-0.906170,-0.098259,-0.020153,0.017681,0,1
595,15,-0.877492,-0.133166,0.027417,0.025260,0,1
570,15,-0.746035,0.002280,-0.151967,0.095876,1,1
599,15,-0.756952,-0.054930,0.020197,-0.154058,1,1
587,15,-0.833352,-0.059226,0.004894,-0.119346,1,1
567,15,-0.823263,-0.014479,-0.194591,0.127236,1,1
585,15,-0.824489,0.032340,-0.053073,0.128913,1,1
575,15,-0.788060,-0.039080,-0.154812,0.181864,1,1
571,15,-0.763333,-0.090413,-0.142560,-0.010537,1,1
576,15,-0.775159,0.079984,-0.233555,-0.010730,1,1
591,15,-0.722941,-0.057496,-0.059652,0.062706,1,1
565,15,-0.769001,-0.053505,-0.183209,0.066015,1,1
577,15,-0.687473,0.037931,-0.211337,0.152651,1,0
594,15,-0.796808,-0.137217,0.001918,-0.042777,1,1
598,15,-0.773329,-0.054338,-0.079347,0.082843,1,1
586,15,-0.730341,-0.037991,-0.031366,-0.037817,1,1
566,15,-0.823517,-0.007324,-0.160345,0.136508,1,1
578,15,-0.799858,-0.014057,-0.172538,0.106621,1,1
581,15,-0.858275,-0.006222,-0.017382,0.019080,1,1
596,15,-0.767596,-0.057643,-0.085897,-0.050736,1,1
588,15,-0.886426,-0.087587,-0.039816,0.055688,1,1
568,15,-0.759812,0.097953,-0.149657,0.091247,1,0
582,15,-0.781941,0.071430,0.050505,-0.024212,1,1
584,15,-0.785377,-0.193240,-0.034600,-0.047362,0,1
560,15,-0.785391,-0.013429,-0.146538,0.069341,1,1
579,15,-0.744408,-0.072034,-0.180423,0.115545,1,1
593,15,-0.926878,0.041042,0.009655,0.001714,1,1
592,15,-0.773018,-0.106460,0.001023,0.080269,1,1
580,15,-0.865947,-0.001845,-0.122381,-0.069074,1,1
572,15,-0.807204,-0.045224,-0.246862,0.065878,1,1
569,15,-0.795548,0.050483,-0.199295,0.072393,1,1
583,15,-0.867977,0.000117,-0.005706,-0.025544,1,1
590,15,-0.777324,-0.084680,0.036285,0.037425,1,1
563,15,-0.741322,-0.001944,-0.193855,0.066237,1,1
614,16,-0.703571,-0.028355,-0.202601,0.065327,1,1
630,16,-0.823845,-0.091276,-0.031628,0.030385,1,1
616,16,-0.720647,0.001128,-0.202628,0.197390,1,1
633,16,-0.862962,-0.123336,-0.017480,-0.072317,1,1
637,16,-0.858663,-0.078270,0.000094,-0.065497,1,1
635,16,-0.799233,0.015626,-0.129595,-0.061748,1,1
617,16,-0.791860,0.017151,-0.153531,0.162858,1,1
610,16,-0.806106,-0.017425,-0.202374,0.154790,1,1
634,16,-0.747222,-0.041115,-0.063031,0.088528,1,1
604,16,-0.878488,-0.041546,-0.294265,0.156558,1,1
615,16,-0.826347,-0.092036,-0.129431,0.161372,1,1
607,16,-0.898820,0.035076,-0.204036,0.178419,1,1
624,16,-0.769820,-0.056587,-0.014374,-0.010659,1,1
638,16,-0.881273,-0.049025,-0.040973,-0.001055,1,1
606,16,-0.883556,0.000100,-0.145689,0.095303,1,1
602,16,-0.757988,0.056374,-0.155055,0.130334,1,1
629,16,-0.840158,-0.059925,-0.043528,-0.039056,1,1
601,16,-0.929985,-0.014949,-0.285584,0.071218,1,1
611,16,-0.807243,0.019321,-0.162149,0.086208,1,1
632,16,-0.775262,-0.044531,-0.042763,-0.083288,1,1
631,16,-0.742169,-0.064309,-0.146801,0.102344,1,1
603,16,-0.840249,0.012796,-0.215948,0.068216,1,1
605,16,-0.852455,0.110714,-0.175260,0.043600,1,0
612,16,-0.799028,-0.062397,-0.149954,0.094067,1,1
628,16,-0.845381,-0.046003,-0.074993,0.021348,1,1
627,16,-0.862792,-0.068575,-0.034056,-0.052695,1,1
625,16,-0.767229,-0.099875,0.020200,-0.052102,1,1
639,16,-0.820424,-0.081796,0.003924,0.014348,1,1
618,16,-0.728096,-0.011949,-0.255516,0.173070,1,1
613,16,-0.693263,0.041965,-0.220394,0.083537,1,1
626,16,-0.788619,-0.080504,-0.107074,-0.048389,1,1
636,16,-0.792047,-0.127578,0.113434,0.009074,1,1
623,16,-0.750195,-0.111977,-0.007024,-0.046696,1,1
609,16,-0.829132,0.012446,-0.117649,0.123261,1,1
619,16,-0.773449,0.065032,-0.214782,0.128551,1,1
600,16,-0.810525,0.040730,-0.190325,0.075993,1,1
622,16,-0.801902,-0.121573,0.033550,-0.065283,1,1
620,16,-0.833371,0.017612,-0.033130,0.031591,1,1
621,16,-0.719092,-0.092127,0.035978,0.012037,1,1
608,16,-0.855005,-0.000711,-0.214356,0.119470,1,1
666,17,-0.723193,-0.052368,-0.105916,-0.016874,1,1
678,17,-0.809362,-0.090570,0.027678,-0.016418,1,1
673,17,-0.833305,-0.046993,-0.006228,-0.008167,1,1
657,17,-0.786060,-0.011182,-0.204228,0.179224,1,1
677,17,-0.817992,-0.020875,0.035686,-0.039453,1,1
663,17,-0.838001,-0.051841,-0.087550,-0.076772,1,1
640,17,-0.773773,-0.041369,-0.168813,0.104182,1,1
679,17,-0.770723,-0.097203,-0.063638,-0.034879,1,1
667,17,-0.759949,-0.080212,-0.038656,-0.046151,1,1
650,17,-0.775246,-0.063898,-0.273020,0.038956,1,1
655,17,-0.747215,0.024020,-0.058877,0.085631,1,1
652,17,-0.767008,0.022732,-0.192057,0.113095,1,1
668,17,-0.807357,-0.086272,-0.007308,-0.073583,1,1
661,17,-0.826230,-0.029989,0.009887,-0.155152,1,1
671,17,-0.869667,-0.137504,-0.086558,-0.036335,0,1
674,17,-0.704853,-0.062932,-0.064418,-0.001805,1,1
646,17,-0.775541,-0.093643,-0.291916,0.149178,1,1
662,17,-0.839497,-0.087598,-0.043200,0.003842,1,1
648,17,-0.858365,-0.024928,-0.187595,0.089661,1,1
644,17,-0.779511,-0.082460,-0.275950,0.186460,1,1
670,17,-0.944041,-0.093373,-0.061521,-0.017578,0,1
676,17,-0.735759,-0.022900,-0.054881,0.000562,1,1
659,17,-0.740928,-0.027243,-0.115710,0.144533,1,1
672,17,-0.824881,-0.037324,-0.068611,-0.018470,1,1
643,17,-0.782426,0.099801,-0.237606,0.087941,1,0
651,17,-0.770597,0.006616,-0.127313,0.134316,1,1
645,17,-0.761420,0.016611,-0.157708,0.168787,1,1
641,17,-0.774507,-0.022182,-0.075502,0.144982,1,1
656,17,-0.783633,0.003992,-0.201719,0.126436,1,1
664,17,-0.874293,-0.065877,-0.036579,-0.137266,1,1
654,17,-0.763004,0.074453,-0.200629,0.072346,1,1
658,17,-0.813302,0.040068,-0.302978,0.142199,1,1
675,17,-0.735613,-0.065429,0.008899,0.046431,1,1
649,17,-0.821833,-0.081407,-0.222766,0.084102,1,1
665,17,-0.829797,-0.089452,0.020604,-0.087576,1,1
669,17,-0.758035,-0.046405,-0.032322,-0.087315,1,1
653,17,-0.872886,0.051008,-0.157301,0.098130,1,1
642,17,-0.792050,-0.042211,-0.199904,0.142423,1,1
660,17,-0.834539,0.001741,-0.037205,-0.058234,1,1
647,17,-0.735902,-0.027941,-0.138036,0.059637,1,1
681,18,-0.807433,-0.030481,-0.133412,0.128936,1,1
717,18,-0.840159,0.028712,-0.079930,0.138286,1,1
693,18,-0.806654,-0.044018,-0.161521,0.051927,1,1
687,18,-0.734765,-0.049135,-0.167039,0.153197,1,1
707,18,-0.836859,-0.005650,-0.015760,-0.012962,1,1
699,18,-0.724643,-0.083779,-0.180512,0.067647,1,1
701,18,-0.716682,-0.126502,-0.021765,-0.028089,1,1
696,18,-0.767557,0.007869,-0.108956,0.207434,1,1
691,18,-0.831913,-0.108641,-0.208802,0.181337,1,1
684,18,-0.763203,-0.020024,-0.179314,0.094514,1,1
713,18,-0.833030,-0.091058,-0.049167,-0.001909,1,1
695,18,-0.825753,0.024882,-0.242921,0.078552,1,1
698,18,-0.742209,-0.002993,-0.241619,0.155602,1,1
686,18,-0.844045,0.043653,-0.207531,0.128683,1,1
705,18,-0.900032,-0.079654,-0.028347,0.003000,1,1
683,18,-0.799477,-0.008186,-0.045059,0.066702,1,1
719,18,-0.815507,-0.015001,-0.060971,-0.095563,1,1
710,18,-0.863105,-0.031655,0.006594,0.049690,1,1
682,18,-0.656837,-0.048861,-0.231243,0.101645,1,1
711,18,-0.833368,-0.062405,-0.039951,-0.063095,1,1
709,18,-0.830767,-0.045930,-0.071117,-0.120423,1,1
708,18,-0.802638,-0.009596,-0.044949,-0.034257,1,1
712,18,-0.796102,-0.026297,-0.103652,-0.069801,1,1
680,18,-0.921200,0.021409,-0.252939,0.203967,1,1
714,18,-0.786226,-0.011338,0.014272,-0.067661,1,1
700,18,-0.794615,-0.056519,-0.005837,-0.000479,1,1
689,18,-0.801480,0.027090,-0.233252,0.170466,1,1
716,18,-0.793521,-0.090112,-0.092697,-0.006325,1,1
704,18,-0.721603,-0.018972,-0.047656,-0.089142,1,1
702,18,-0.834800,-0.063503,-0.036009,-0.031886,1,1
692,18,-0.698354,-0.049113,-0.237190,0.008862,1,1
697,18,-0.792679,0.026572,-0.273885,0.115708,1,1
703,18,-0.846248,-0.106045,-0.041003,-0.049305,1,1
685,18,-0.892854,0.009002,-0.172040,0.028281,1,1
690,18,-0.793189,0.045038,-0.236842,0.131812,1,1
715,18,-0.887464,-0.122235,0.078806,-0.060461,0,1
706,18,-0.796539,-0.032842,-0.026844,-0.004298,1,1
718,18,-0.833858,0.040624,-0.083963,-0.027097,1,1
688,18,-0.816484,0.071251,-0.184562,0.172273,1,1
694,18,-0.729517,0.014317,-0.194864,0.029472,1,1
734,19,-0.809475,-0.049545,-0.204157,0.109772,1,1
728,19,-0.907316,-0.015124,-0.125076,0.164753,1,1
738,19,-0.670744,0.045594,-0.191038,0.147161,1,0
726,19,-0.758830,0.003172,-0.193217,0.233536,1,1
752,19,-0.739084,-0.038444,-0.080941,0.050887,1,1
744,19,-0.767526,-0.083667,-0.025041,-0.093006,1,1
730,19,-0.731272,-0.013609,-0.219349,0.078865,1,1
736,19,-0.800778,-0.060811,-0.201066,0.177801,1,1
729,19,-0.790471,-0.055551,-0.178306,0.171355,1,1
747,19,-0.817111,-0.083527,-0.029215,-0.042580,1,1
723,19,-0.843785,0.081906,-0.087609,0.152203,1,1
753,19,-0.767835,-0.011683,-0.045666,-0.043178,1,1
758,19,-0.846702,-0.066180,-0.078194,-0.111482,1,1
745,19,-0.817945,0.049435,0.001976,-0.091208,1,1
732,19,-0.764584,0.062523,-0.200487,0.060208,1,1
743,19,-0.737348,-0.032094,0.028109,0.027450,1,1
750,19,-0.743521,-0.053213,-0.079220,-0.061977,1,1
735,19,-0.875537,-0.043189,-0.120612,0.124023,1,1
722,19,-0.832146,-0.064480,-0.182786,0.227890,1,1
757,19,-0.790862,-0.011956,-0.104774,-0.013191,1,1
727,19,-0.820517,-0.043628,-0.205410,-0.023875,1,1
749,19,-0.859300,-0.015301,-0.018576,-0.033853,1,1
724,19,-0.917962,0.063393,-0.134103,0.083195,1,0
748,19,-0.893212,0.004304,0.016663,0.096328,1,1
755,19,-0.763006,-0.076865,-0.085141,0.002673,1,1
720,19,-0.829908,-0.012060,-0.131114,0.137270,1,1
746,19,-0.801168,-0.110738,-0.011934,-0.007136,1,1
742,19,-0.753344,-0.013024,-0.066743,0.034228,1,1
725,19,-0.766116,0.055882,-0.181024,0.125085,1,1
759,19,-0.779778,-0.025125,-0.098975,-0.031906,1,1
751,19,-0.740377,-0.062199,0.051101,0.021089,1,1
741,19,-0.758575,-0.129106,-0.105293,-0.045428,1,1
721,19,-0.793707,-0.032791,-0.164772,0.104234,1,1
739,19,-0.838733,0.000600,-0.159613,0.100172,1,1
740,19,-0.852744,-0.062332,0.011377,-0.024162,1,1
733,19,-0.811045,0.061755,-0.167432,0.073501,1,1
756,19,-0.789268,-0.062048,-0.012668,-0.069341,1,1
737,19,-0.826060,0.013574,-0.246977,0.067595,1,1
731,19,-0.792425,0.095093,-0.177280,0.126349,1,0
754,19,-0.823017,-0.139366,-0.053136,-0.010313,1,1
781,20,-0.780511,-0.036372,-0.059288,-0.013556,1,1
796,20,-0.772838,-0.079885,-0.043782,-0.058896,1,1
782,20,-0.827311,-0.053470,-0.008816,-0.027029,1,1
774,20,-0.840514,-0.006323,-0.215390,0.131692,1,1
794,20,-0.778376,-0.092900,0.091431,-0.026609,1,1
773,20,-0.808738,0.009075,-0.231534,0.111481,1,1
780,20,-0.776218,-0.078504,-0.041288,-0.157714,1,1
771,20,-0.723133,0.071858,-0.189593,0.071149,1,0
786,20,-0.757670,0.043353,0.012349,-0.036849,1,1
769,20,-0.731767,0.001353,-0.202875,0.120415,1,1
789,20,-0.831752,-0.103403,-0.011583,0.038215,1,1
799,20,-0.756270,-0.164062,-0.052462,-0.082692,0,1
770,20,-0.884036,-0.014294,-0.169947,0.104518,1,1
793,20,-0.799356,-0.075518,-0.050941,-0.027867,1,1
798,20,-0.836838,-0.077154,-0.061952,-0.020364,1,1
767,20,-0.739790,0.017109,-0.206041,0.103408,1,1
762,20,-0.627071,-0.038641,-0.244554,0.161168,1,0
784,20,-0.850154,-0.037560,-0.040469,-0.064108,1,1
779,20,-0.721634,0.076110,-0.208569,0.065423,1,0
766,20,-0.783948,-0.001817,-0.208829,0.159357,1,1
795,20,-0.773933,-0.012716,-0.090843,-0.131825,1,1
783,20,-0.710935,-0.024912,0.013301,-0.035942,1,1
791,20,-0.771805,-0.127787,-0.037727,-0.025978,1,1
775,20,-0.810312,0.071641,-0.208831,0.080027,1,1
778,20,-0.873075,0.061636,-0.220192,0.096482,1,1
765,20,-0.797752,0.099751,-0.092143,0.081335,1,0
777,20,-0.758209,-0.002962,-0.106422,0.006214,1,1
776,20,-0.802204,0.063600,-0.236745,0.092611,1,1
785,20,-0.806459,-0.050261,-0.036497,-0.025616,1,1
768,20,-0.882126,0.039028,-0.207338,0.075275,1,1
763,20,-0.727848,0.012742,-0.177116,0.049925,1,1
792,20,-0.741854,-0.043869,-0.037472,0.075393,1,1
764,20,-0.906731,0.054204,-0.128307,0.078636,1,0
787,20,-0.779972,-0.012032,-0.109486,-0.007716,1,1
790,20,-0.783732,-0.076137,-0.012079,0.041205,1,1
761,20,-0.786200,-0.005331,-0.238758,0.131662,1,1
797,20,-0.769182,-0.085667,0.012390,-0.041963,1,1
772,20,-0.787342,0.011906,-0.177722,0.054311,1,1
760,20,-0.762835,-0.050552,-0.202878,0.209865,1,1
788,20,-0.861540,0.002437,-0.077512,-0.038650,1,1
822,21,-0.828423,-0.026153,-0.100099,0.000740,1,1
832,21,-0.891538,0.031086,-0.010754,0.002367,1,1
815,21,-0.839644,0.036264,-0.236695,0.140762,1,1
839,21,-0.807087,-0.066730,-0.112581,0.030503,1,1
826,21,-0.741046,-0.008743,-0.150652,0.048002,1,1
837,21,-0.744718,-0.045973,-0.058112,-0.016584,1,1
810,21,-0.817394,0.003965,-0.251085,0.035300,1,1
829,21,-0.814718,-0.062047,0.068643,0.016707,1,1
800,21,-0.790384,0.033292,-0.216840,0.170353,1,1
816,21,-0.703231,-0.013836,-0.121321,0.057411,1,1
818,21,-0.750984,0.119785,-0.192874,0.073362,1,0
801,21,-0.756061,0.041881,-0.172283,0.119664,1,1
820,21,-0.762460,-0.074806,0.005333,0.017641,1,1
836,21,-0.732199,-0.024053,-0.007089,-0.004145,1,1
831,21,-0.818123,-0.003403,-0.028266,-0.014016,1,1
823,21,-0.841934,-0.083610,-0.040416,-0.060534,1,1
838,21,-0.840133,-0.058015,-0.051146,-0.027578,1,1
803,21,-0.808049,-0.031479,-0.244809,0.170598,1,1
824,21,-0.798147,-0.109694,-0.020083,-0.000392,1,1
804,21,-0.831770,0.059778,-0.205823,0.079313,1,1
807,21,-0.782368,0.053048,-0.145358,0.087138,1,1
819,21,-0.718325,-0.059869,-0.203830,0.083620,1,1
809,21,-0.807986,0.016106,-0.267313,0.144633,1,1
817,21,-0.816623,-0.003901,-0.235724,0.178026,1,1
821,21,-0.703686,-0.100244,0.037115,-0.021631,1,1
827,21,-0.820500,-0.024714,-0.023567,-0.101834,1,1
834,21,-0.799589,-0.095159,-0.041048,-0.036579,1,1
828,21,-0.803773,-0.055100,-0.058262,0.082895,1,1
835,21,-0.846758,-0.000531,-0.035192,-0.061289,1,1
812,21,-0.817656,0.034188,-0.207557,0.164553,1,1
833,21,-0.785518,-0.034892,0.016937,0.056752,1,1
813,21,-0.797021,0.013604,-0.130232,0.096338,1,1
811,21,-0.885683,0.004631,-0.214582,0.160840,1,1
802,21,-0.705328,-0.002577,-0.071192,0.064499,1,1
805,21,-0.759513,-0.072836,-0.017742,0.132081,1,1
825,21,-0.805781,-0.042250,-0.045121,-0.080025,1,1
808,21,-0.801073,-0.001152,-0.286476,0.160423,1,1
814,21,-0.792979,-0.017701,-0.145485,0.148333,1,1
830,21,-0.792254,-0.120596,-0.019644,0.006768,1,1
806,21,-0.759559,-0.043539,-0.247708,0.060223,1,1
843,22,-0.812113,-0.022623,-0.143713,0.129525,1,1
852,22,-0.757258,0.044374,-0.188200,0.164220,1,1
847,22,-0.722004,0.005873,-0.153034,0.051210,1,1
872,22,-0.685210,-0.162208,-0.014759,0.005926,0,1
855,22,-0.815692,-0.025470,-0.179903,0.059208,1,1
842,22,-0.829804,0.026228,-0.152346,0.073982,1,1
862,22,-0.698833,-0.025513,-0.009396,-0.041883,1,1
854,22,-0.858390,0.004870,-0.216671,0.149971,1,1
859,22,-0.822205,0.005441,-0.160663,0.101465,1,1
865,22,-0.764363,-0.040620,-0.177947,0.039980,1,1
861,22,-0.805336,-0.069652,-0.027660,-0.098498,1,1
858,22,-0.854862,-0.036081,-0.097173,0.070518,1,1
877,22,-0.852482,-0.043283,-0.087484,-0.048734,1,1
870,22,-0.720978,-0.004460,-0.072997,0.017245,1,1
868,22,-0.802546,-0.072563,-0.024391,-0.029488,1,1
876,22,-0.749105,-0.044108,-0.073513,-0.092888,1,1
873,22,-0.788351,-0.058725,-0.023244,0.021616,1,1
850,22,-0.809583,0.035354,-0.227316,0.124093,1,1
867,22,-0.840930,-0.074576,0.061736,0.041178,1,1
864,22,-0.768119,-0.025192,-0.131710,-0.114675,1,1
875,22,-0.799148,-0.019485,0.032606,0.006921,1,1
848,22,-0.753155,0.070931,-0.122967,0.102523,1,1
846,22,-0.752586,0.021985,-0.183841,0.134329,1,1
874,22,-0.756134,0.001417,-0.106526,-0.019868,1,1
841,22,-0.763769,0.035599,-0.186482,0.187343,1,1
845,22,-0.748472,-0.011197,-0.213980,0.067270,1,1
863,22,-0.744414,-0.022886,-0.099534,-0.064434,1,1
869,22,-0.775239,-0.080957,-0.052961,-0.091725,1,1
860,22,-0.772929,0.019938,-0.084989,-0.041255,1,1
844,22,-0.830330,-0.058567,-0.076240,0.122929,1,1
856,22,-0.803142,-0.017713,-0.178081,0.218157,1,1
849,22,-0.797353,-0.024134,-0.330926,0.145004,1,1
840,22,-0.825920,0.017554,-0.281389,0.144557,1,1
851,22,-0.749374,0.081267,-0.185118,0.156721,1,1
879,22,-0.808165,-0.012191,-0.094428,0.063208,1,1
853,22,-0.814220,-0.065496,-0.249635,0.135879,1,1
857,22,-0.721303,0.118523,-0.214288,0.121850,1,0
878,22,-0.827061,-0.092353,0.004551,0.047869,1,1
866,22,-0.797248,-0.007126,-0.070454,-0.042753,1,1
871,22,-0.826108,-0.090633,0.059947,-0.057118,1,1
882,23,-0.775406,0.011323,0.019220,-0.383668,1,1
898,23,-0.855466,-0.035276,0.017729,-0.301752,1,1
902,23,-0.840322,-0.072612,0.068407,-0.141631,1,1
905,23,-0.818230,-0.012905,0.116483,-0.135509,1,1
884,23,-0.850343,0.067537,0.005595,-0.242677,1,1
888,23,-0.790048,0.012583,-0.021739,-0.179733,1,1
893,23,-0.803993,-0.015388,-0.036107,-0.203619,1,1
896,23,-0.892741,0.003354,-0.074250,-0.254880,1,1
903,23,-0.825667,-0.068334,-0.038556,-0.186563,1,1
908,23,-0.805195,0.030545,0.074726,-0.120371,1,1
889,23,-0.870597,0.001914,0.020756,-0.184326,1,1
881,23,-0.889112,-0.002642,-0.079352,-0.090297,1,1
895,23,-0.839872,-0.004585,0.008979,-0.200696,1,1
899,23,-0.755862,0.024147,-0.028730,-0.173715,1,1
890,23,-0.728687,-0.047667,-0.077029,-0.159344,1,1
892,23,-0.875978,0.012147,-0.140814,-0.153934,1,1
901,23,-0.718763,-0.012226,0.112893,-0.085400,1,1
886,23,-0.746024,-0.023494,0.015237,-0.247451,1,1
883,23,-0.801318,-0.032995,-0.041732,-0.158095,1,1
885,23,-0.804299,-0.011602,-0.060406,-0.270267,1,1
911,23,-0.891585,0.031123,-0.004526,-0.106260,1,1
918,23,-0.785534,-0.114892,0.003289,-0.132000,1,1
913,23,-0.776233,0.058589,-0.003212,-0.094693,1,1
907,23,-0.834940,-0.034769,0.097507,-0.010016,1,1
897,23,-0.755236,0.033323,-0.055919,-0.188090,1,1
915,23,-0.756088,-0.003150,0.124057,-0.194574,1,1
917,23,-0.717508,-0.042126,0.025775,-0.111687,1,1
904,23,-0.790723,0.039332,0.081470,-0.064394,1,1
919,23,-0.852540,0.063760,0.012150,-0.043271,1,1
894,23,-0.751873,-0.035699,-0.117696,-0.088800,1,1
880,23,-0.789155,-0.046437,-0.041459,-0.187907,1,1
910,23,-0.914178,-0.016257,0.077379,-0.128354,1,1
906,23,-0.760145,-0.141671,0.110916,-0.085259,1,1
887,23,-0.930862,0.071974,0.011799,-0.122776,1,0
916,23,-0.808962,-0.097391,0.053843,-0.032364,1,1
900,23,-0.753139,-0.015498,0.099985,-0.070257,1,1
914,23,-0.860006,-0.089332,0.016213,-0.066084,1,1
909,23,-0.777857,-0.075449,0.034640,-0.079334,1,1
912,23,-0.844293,-0.111061,0.015243,-0.091517,1,1
891,23,-0.695316,-0.069775,-0.133759,-0.169351,1,1
950,24,-0.736325,-0.008677,0.051558,-0.003421,1,1
945,24,-0.785949,0.014938,0.015881,-0.056571,1,1
926,24,-0.887895,-0.005434,0.046251,-0.268892,1,1
947,24,-0.688331,-0.053362,0.074289,-0.048396,1,1
949,24,-0.798012,-0.091860,0.092835,0.014891,1,1
935,24,-0.805708,-0.039132,-0.069903,-0.222458,1,1
943,24,-0.777482,0.054694,0.084654,-0.110686,1,1
933,24,-0.806752,0.096203,-0.070450,-0.217607,1,0
948,24,-0.862626,-0.081348,0.069973,-0.056027,1,1
937,24,-0.835283,0.072099,-0.065534,-0.130424,1,1
934,24,-0.837447,0.028399,-0.049598,-0.134360,1,1
928,24,-0.751213,-0.055862,-0.120366,-0.156746,1,1
930,24,-0.782142,-0.008144,-0.078978,-0.122637,1,1
942,24,-0.758400,-0.023091,0.076944,-0.139794,1,1
927,24,-0.702500,0.076496,-0.006974,-0.231301,1,0
920,24,-0.949449,0.124301,-0.003106,-0.179350,1,0
954,24,-0.862330,0.014100,0.082844,-0.128918,1,1
957,24,-0.863886,-0.038591,0.016969,-0.125917,1,1
953,24,-0.779057,-0.063018,0.055341,-0.169028,1,1
922,24,-0.830838,-0.003132,0.059938,-0.174639,1,1
923,24,-0.826190,0.048261,-0.108121,-0.256157,1,1
940,24,-0.829822,-0.061217,-0.004468,-0.098746,1,1
946,24,-0.806933,-0.122643,0.068326,-0.027708,1,1
952,24,-0.777013,0.040272,0.015251,-0.121928,1,1
924,24,-0.780225,-0.020463,0.020731,-0.195175,1,1
931,24,-0.775472,0.001467,0.007164,-0.303128,1,1
939,24,-0.820696,0.001907,-0.031124,-0.147434,1,1
932,24,-0.811087,0.077231,-0.097471,-0.165039,1,1
956,24,-0.809183,-0.098988,0.055966,-0.036741,1,1
941,24,-0.832382,-0.027101,0.079549,-0.062484,1,1
955,24,-0.727657,-0.043680,0.017756,-0.115851,1,1
936,24,-0.730111,-0.008373,0.113964,-0.166631,1,1
925,24,-0.797939,-0.003104,-0.055880,-0.123217,1,1
929,24,-0.854176,0.015930,-0.067584,-0.189970,1,1
958,24,-0.847963,-0.112463,0.020957,-0.108001,1,1
959,24,-0.843947,-0.016637,0.170617,-0.038927,1,1
938,24,-0.799973,-0.002485,-0.143950,-0.140970,1,1
944,24,-0.767856,-0.060453,0.015210,-0.089169,1,1
951,24,-0.868521,-0.069085,0.090023,-0.136999,1,1
921,24,-0.761353,0.006110,-0.028226,-0.360057,1,1
998,25,-0.780800,-0.054772,0.103444,-0.078601,1,1
975,25,-0.816731,0.001959,-0.002750,-0.228230,1,1
981,25,-0.766394,-0.129445,0.147111,0.017215,1,1
968,25,-0.774968,-0.049994,-0.035985,-0.176129,1,1
972,25,-0.762638,-0.037542,0.010006,-0.181329,1,1
960,25,-0.816518,-0.001275,-0.037473,-0.189677,1,1
969,25,-0.763881,-0.087844,-0.083905,-0.201427,1,1
977,25,-0.872579,0.034627,-0.047580,-0.310691,1,1
974,25,-0.880395,0.010046,-0.067417,-0.196319,1,1
983,25,-0.807821,0.001343,-0.049234,-0.049219,1,1
964,25,-0.824061,-0.028163,-0.086451,-0.159995,1,1
985,25,-0.809103,0.000517,0.018936,-0.079020,1,1
967,25,-0.677383,0.059874,-0.085627,-0.126599,1,0
997,25,-0.805566,-0.015895,0.046911,-0.137769,1,1
965,25,-0.770814,0.122473,0.016235,-0.103852,1,0
982,25,-0.746205,-0.094393,0.092637,-0.031446,1,1
978,25,-0.799615,0.081442,-0.094690,-0.238038,1,1
996,25,-0.755318,-0.169739,0.010307,-0.116406,0,1
980,25,-0.781262,-0.044720,0.089642,-0.075414,1,1
989,25,-0.730530,0.022926,0.051069,-0.127996,1,1
991,25,-0.854613,-0.083186,0.020845,-0.090182,1,1
976,25,-0.821717,0.007248,0.009337,-0.169469,1,1
962,25,-0.865744,0.010518,0.006422,-0.144737,1,1
995,25,-0.821817,-0.081751,0.021153,-0.012619,1,1
992,25,-0.788511,-0.026622,0.057783,-0.158292,1,1
984,25,-0.844183,-0.072873,0.004745,-0.062041,1,1
986,25,-0.792408,-0.110734,0.015433,-0.126552,1,1
979,25,-0.781763,0.046999,-0.081299,-0.244110,1,1
970,25,-0.725425,-0.010247,-0.092631,-0.202938,1,1
971,25,-0.765536,0.027860,-0.070210,-0.193660,1,1
963,25,-0.761805,0.026784,0.009739,-0.198772,1,1
994,25,-0.840248,-0.041174,0.049542,-0.060254,1,1
987,25,-0.730155,-0.009886,0.124320,-0.120482,1,1
993,25,-0.695521,-0.128848,0.011997,-0.115644,0,1
988,25,-0.815066,-0.046063,-0.064051,-0.119191,1,1
999,25,-0.787602,-0.072086,0.129737,-0.141256,1,1
961,25,-0.809280,-0.062026,-0.102658,-0.092943,1,1
990,25,-0.821253,-0.193102,-0.025268,-0.115947,0,1
966,25,-0.818057,-0.020852,-0.019249,-0.205588,1,1
973,25,-0.813613,0.018623,-0.020017,-0.197223,1,1
1030,26,-0.837742,-0.097707,0.017048,-0.165896,1,1
1032,26,-0.772474,-0.089290,0.102258,-0.150272,1,1
1017,26,-0.755015,0.030053,0.048210,-0.216231,1,1
1001,26,-0.786935,0.010431,-0.053102,-0.227434,1,1
1023,26,-0.791908,-0.048246,0.072282,-0.080042,1,1
1034,26,-0.837417,-0.133279,0.067628,-0.168435,1,1
1039,26,-0.740381,0.070334,0.001906,-0.107538,1,1
1004,26,-0.794670,-0.114113,-0.041525,-0.212032,1,1
1003,26,-0.790015,0.033389,0.041503,-0.179104,1,1
1028,26,-0.819777,-0.044126,0.092219,-0.049122,1,1
1020,26,-0.798277,-0.023997,0.023654,-0.067751,1,1
1012,26,-0.790688,0.065904,-0.009506,-0.202935,1,1
1006,26,-0.807440,-0.008007,-0.033111,-0.225066,1,1
1018,26,-0.755527,-0.016588,-0.045548,-0.284316,1,1
1007,26,-0.767704,0.080977,-0.100101,-0.204171,1,1
1036,26,-0.837454,-0.060558,0.024725,-0.014967,1,1
1015,26,-0.776901,0.043006,-0.079026,-0.253775,1,1
1009,26,-0.785768,0.023582,-0.072668,-0.150427,1,1
1026,26,-0.797884,-0.138157,0.063594,-0.073109,1,1
1029,26,-0.738897,-0.083512,0.021865,-0.132489,1,1
1037,26,-0.762216,-0.014298,0.120322,-0.089411,1,1
1000,26,-0.736190,-0.061623,-0.045218,-0.273421,1,1
1005,26,-0.853027,0.000929,-0.004787,-0.176868,1,1
1021,26,-0.802988,-0.094514,0.055748,-0.058740,1,1
1035,26,-0.788853,-0.122107,0.048180,-0.037720,1,1
1025,26,-0.750983,-0.073765,0.036598,-0.102594,1,1
1010,26,-0.750731,-0.013445,-0.107057,-0.240441,1,1
1013,26,-0.738214,0.069744,0.001342,-0.240696,1,1
1038,26,-0.798288,-0.084101,0.092070,-0.140482,1,1
1033,26,-0.857663,-0.091980,-0.004778,-0.091634,1,1
1022,26,-0.828729,-0.029180,-0.012303,-0.115079,1,1
1002,26,-0.845615,-0.012304,-0.059287,-0.233050,1,1
1024,26,-0.825736,-0.101987,0.047450,0.017178,1,1
1027,26,-0.820761,-0.089435,0.136545,-0.074380,1,1
1014,26,-0.786769,0.073781,-0.056853,-0.185830,1,1
1016,26,-0.855151,0.052932,-0.129500,-0.120624,1,1
1019,26,-0.822373,-0.009668,-0.049926,-0.337842,1,1
1008,26,-0.814406,-0.042939,-0.046603,-0.314184,1,1
1031,26,-0.904040,-0.140551,0.051954,-0.041358,0,1
1011,26,-0.807716,0.025655,-0.004147,-0.222917,1,1
1054,27,-0.819751,-0.059234,-0.089092,-0.175819,1,1
1043,27,-0.839232,-0.067919,-0.056847,-0.145309,1,1
1042,27,-0.761069,0.042903,0.030802,-0.199041,1,1
1077,27,-0.830385,-0.103916,0.041447,-0.090768,1,1
1059,27,-0.802188,0.010088,-0.082723,-0.232878,1,1
1076,27,-0.852086,0.000298,0.051253,-0.163625,1,1
1049,27,-0.823590,-0.009158,-0.041322,-0.235647,1,1
1078,27,-0.822764,-0.012262,0.074515,-0.037652,1,1
1051,27,-0.763443,-0.005060,-0.011800,-0.129726,1,1
1060,27,-0.814098,-0.095781,0.024400,-0.122139,1,1
1067,27,-0.759191,-0.035419,0.139982,-0.050004,1,1
1069,27,-0.881545,-0.025141,0.037666,-0.152441,1,1
1072,27,-0.821857,0.038271,-0.029088,-0.142010,1,1
1073,27,-0.841040,-0.118948,0.105536,-0.056627,1,1
1079,27,-0.820978,-0.002024,0.134258,-0.082754,1,1
1040,27,-0.821380,0.007271,-0.060071,-0.128965,1,1
1057,27,-0.800405,0.020301,-0.098400,-0.236109,1,1
1064,27,-0.790765,-0.058330,0.040043,-0.092824,1,1
1046,27,-0.832832,0.033049,-0.092486,-0.151714,1,1
1075,27,-0.778921,-0.090323,0.110715,-0.068004,1,1
1055,27,-0.756883,0.008849,0.008731,-0.223486,1,1
1056,27,-0.790973,0.018816,-0.057556,-0.257625,1,1
1044,27,-0.800335,0.006286,-0.086464,-0.120955,1,1
1065,27,-0.819581,-0.032739,-0.023094,-0.090669,1,1
1050,27,-0.840419,0.054062,-0.089479,-0.114780,1,1
1053,27,-0.819969,-0.009584,-0.046532,-0.248315,1,1
1052,27,-0.777966,0.083431,0.037234,-0.081968,1,1
1063,27,-0.823667,-0.124604,0.034260,-0.063584,1,1
1047,27,-0.827064,-0.023123,-0.037056,-0.176006,1,1
1041,27,-0.737018,0.062580,0.035661,-0.217347,1,1
1045,27,-0.803910,-0.065039,-0.077395,-0.178909,1,1
1048,27,-0.676251,0.014819,-0.077516,-0.158608,1,1
1068,27,-0.737682,-0.055979,0.047353,-0.029001,1,1
1058,27,-0.777899,-0.017280,-0.031650,-0.188248,1,1
1062,27,-0.740294,-0.091160,0.040345,-0.090955,1,1
1074,27,-0.805369,-0.118572,0.069634,-0.073291,1,1
1066,27,-0.814888,-0.057210,0.100383,-0.104132,1,1
1070,27,-0.772062,-0.063328,0.044541,-0.046159,1,1
1061,27,-0.845934,-0.054884,0.060321,-0.169226,1,1
1071,27,-0.802298,-0.098428,-0.000725,-0.080463,1,1
1093,28,-0.769101,-0.024158,-0.029477,-0.231329,1,1
1091,28,-0.675029,0.028021,-0.036077,-0.188573,1,1
1080,28,-0.798930,0.112704,-0.053814,-0.080676,1,0
1113,28,-0.777681,-0.003972,0.059402,-0.128861,1,1
1090,28,-0.852966,-0.057831,-0.198554,-0.198204,1,1
1109,28,-0.776627,-0.079911,0.055786,-0.041185,1,1
1106,28,-0.743239,0.067955,0.054454,-0.011299,1,1
1101,28,-0.851340,-0.014688,0.084613,-0.046747,1,1
1119,28,-0.767329,-0.007582,0.040910,-0.084837,1,1
1082,28,-0.781512,0.042085,-0.001339,-0.279930,1,1
1115,28,-0.777806,-0.116810,0.005868,-0.065187,1,1
1112,28,-0.810483,-0.041387,0.132638,-0.063690,1,1
1085,28,-0.708842,-0.001806,-0.003331,-0.167900,1,1
1083,28,-0.794848,-0.035700,-0.140224,-0.242153,1,1
1117,28,-0.799474,-0.098746,-0.007851,-0.150643,1,1
1108,28,-0.752145,-0.020972,0.003128,-0.114011,1,1
1114,28,-0.754791,-0.014685,0.045658,-0.099155,1,1
1111,28,-0.857449,-0.043449,0.055956,-0.158226,1,1
1099,28,-0.790576,0.094290,0.037860,-0.179034,1,0
1086,28,-0.730001,0.113502,-0.006468,-0.177576,1,0
1092,28,-0.792417,0.007513,0.022161,-0.110415,1,1
1087,28,-0.747907,0.019242,-0.023313,-0.209441,1,1
1110,28,-0.885105,-0.108782,0.037386,-0.061094,1,1
1118,28,-0.844809,0.020488,-0.004862,-0.108150,1,1
1094,28,-0.750642,0.028863,-0.077575,-0.183916,1,1
1084,28,-0.749530,-0.067543,-0.004631,-0.200409,1,1
1104,28,-0.872702,-0.058135,0.132562,-0.027629,1,1
1088,28,-0.805498,0.086251,-0.072882,-0.211973,1,1
1095,28,-0.801959,0.027271,-0.018561,-0.214447,1,1
1105,28,-0.776514,-0.051897,0.030372,-0.040732,1,1
1102,28,-0.861896,0.087572,0.027041,-0.088402,1,1
1103,28,-0.813274,-0.071374,0.012697,-0.079154,1,1
1096,28,-0.803648,0.054935,-0.087026,-0.253523,1,1
1107,28,-0.699047,-0.045859,0.005562,-0.142958,1,1
1081,28,-0.759301,-0.020475,0.007282,-0.193962,1,1
1116,28,-0.773718,-0.038387,0.084984,-0.160983,1,1
1097,28,-0.683201,-0.041521,-0.052503,-0.253821,1,1
1100,28,-0.766867,-0.027298,0.023639,-0.054595,1,1
1098,28,-0.824695,0.019678,0.009864,-0.212562,1,1
1089,28,-0.761849,-0.103460,-0.134467,-0.184914,1,1
1124,29,-0.873512,0.040691,-0.052916,-0.147272,1,1
1133,29,-0.858985,-0.024474,-0.046818,-0.193456,1,1
1128,29,-0.786172,0.051945,-0.073884,-0.215632,1,1
1137,29,-0.767652,0.050981,-0.031882,-0.116092,1,1
1148,29,-0.724268,-0.129201,0.031373,-0.155280,1,1
1130,29,-0.782207,-0.028610,-0.071657,-0.097741,1,1
1132,29,-0.763039,-0.019957,-0.055709,-0.249919,1,1
1159,29,-0.783629,-0.067021,-0.041373,-0.084140,1,1
1158,29,-0.680978,-0.024384,0.086948,-0.116606,1,1
1138,29,-0.684303,0.001965,-0.099129,-0.215274,1,1
1131,29,-0.797998,0.047077,-0.105607,-0.189707,1,1
1151,29,-0.796490,-0.035995,0.029801,-0.119231,1,1
1144,29,-0.722203,-0.037877,0.066987,-0.181920,1,1
1122,29,-0.823508,-0.031203,-0.038943,-0.212306,1,1
1127,29,-0.767120,0.026900,-0.005511,-0.160698,1,1
1155,29,-0.824831,-0.155045,0.095743,-0.013349,0,1
1146,29,-0.736477,-0.018486,0.029330,-0.057111,1,1
1157,29,-0.924015,-0.087374,-0.026998,-0.084002,0,1
1153,29,-0.850526,-0.071149,0.072005,-0.036640,1,1
1150,29,-0.793056,0.048513,0.090411,-0.077241,1,1
1123,29,-0.726580,0.053913,-0.030763,-0.240735,1,1
1134,29,-0.723939,-0.066434,-0.042302,-0.159489,1,1
1156,29,-0.791220,-0.086314,0.111629,-0.129314,1,1
1140,29,-0.760698,-0.018983,0.059814,-0.037463,1,1
1121,29,-0.809489,0.033362,0.038420,-0.179007,1,1
1129,29,-0.786530,0.003645,-0.071648,-0.212052,1,1
1125,29,-0.833804,0.024448,-0.037657,-0.148879,1,1
1152,29,-0.840955,-0.071405,0.034173,-0.151839,1,1
1145,29,-0.812204,-0.085373,0.016034,-0.025515,1,1
1154,29,-0.846575,-0.095628,0.211601,-0.067440,1,1
1141,29,-0.796146,-0.094794,-0.028304,-0.070754,1,1
1149,29,-0.877291,0.001840,0.054949,-0.204084,1,1
1142,29,-0.797876,-0.071914,0.065582,-0.159720,1,1
1143,29,-0.798820,-0.027235,0.007336,-0.073554,1,1
1135,29,-0.866055,-0.047360,-0.033721,-0.193585,1,1
1136,29,-0.807974,-0.026763,-0.016047,-0.221856,1,1
1126,29,-0.756619,0.005401,-0.066424,-0.220748,1,1
1139,29,-0.806863,-0.116361,-0.109834,-0.168046,1,1
1120,29,-0.749391,0.057450,-0.080719,-0.141193,1,1
1147,29,-0.658895,-0.113475,0.011762,-0.136368,0,1
1183,30,-0.804936,-0.054740,0.131495,-0.061821,1,1
1184,30,-0.835707,-0.046488,0.021002,-0.021149,1,1
1182,30,-0.856521,-0.100513,0.034827,-0.079656,1,1
1162,30,-0.664045,0.034228,-0.118627,-0.197675,1,0
1187,30,-0.737850,-0.089517,0.011356,-0.099359,1,1
1164,30,-0.737923,-0.008755,-0.013989,-0.153844,1,1
1171,30,-0.779573,-0.045453,0.049643,-0.180921,1,1
1167,30,-0.787790,-0.005132,-0.039204,-0.212896,1,1
1166,30,-0.713401,0.033783,-0.152685,-0.282977,1,1
1176,30,-0.753103,0.111886,-0.036103,-0.176240,1,0
1195,30,-0.788886,0.058482,0.122522,-0.104944,1,1
1175,30,-0.718968,-0.013584,-0.077592,-0.159568,1,1
1181,30,-0.752793,-0.109717,0.002507,-0.169354,1,1
1189,30,-0.746593,-0.074778,0.049760,-0.137872,1,1
1194,30,-0.772358,-0.000294,-0.033577,-0.136724,1,1
1168,30,-0.818490,0.089749,-0.041843,-0.164154,1,0
1186,30,-0.836904,0.012164,0.065107,-0.154047,1,1
1193,30,-0.822093,-0.053862,0.138177,-0.176061,1,1
1180,30,-0.905687,-0.097711,0.061980,-0.066757,0,1
1163,30,-0.834718,0.133239,-0.032614,-0.267768,1,0
1192,30,-0.706077,-0.031494,0.037544,-0.074639,1,1
1172,30,-0.770999,-0.008068,-0.054212,-0.123946,1,1
1190,30,-0.803700,-0.016820,0.047926,-0.011975,1,1
1188,30,-0.838647,-0.130492,0.052982,-0.041356,1,1
1170,30,-0.798036,-0.010899,-0.078039,-0.210437,1,1
1179,30,-0.797750,-0.063853,-0.032662,-0.126726,1,1
1198,30,-0.828687,-0.021532,0.068724,-0.067471,1,1
1177,30,-0.786002,-0.033121,-0.050412,-0.181333,1,1
1178,30,-0.795220,0.031067,-0.094458,-0.201899,1,1
1161,30,-0.917061,0.057980,-0.126617,-0.254038,1,0
1185,30,-0.711648,-0.040547,0.072337,-0.136159,1,1
1165,30,-0.804506,0.140120,-0.035762,-0.244418,1,0
1174,30,-0.860867,0.009717,-0.046131,-0.145124,1,1
1160,30,-0.734350,0.041386,-0.132548,-0.118934,1,1
1191,30,-0.785518,-0.092020,0.013873,-0.088376,1,1
1196,30,-0.913168,-0.087236,0.056628,-0.127300,0,1
1199,30,-0.789856,-0.080043,-0.037669,-0.096622,1,1
1197,30,-0.730804,-0.047680,0.120811,-0.106042,1,1
1169,30,-0.776947,-0.029923,-0.068746,-0.222389,1,1
1173,30,-0.807537,-0.024881,0.075946,-0.282685,1,1
1200,31,-0.856937,0.061048,-0.206754,-0.090136,1,1
1203,31,-0.766507,-0.011682,-0.156475,-0.044264,1,1
1206,31,-0.847284,-0.010744,-0.061072,-0.056541,1,1
1227,31,-0.755158,-0.009331,0.029594,-0.036027,1,1
1235,31,-0.847410,-0.092142,0.138036,-0.066791,1,1
1226,31,-0.797079,0.027368,0.077655,-0.154960,1,1
1229,31,-0.728812,-0.025463,-0.000633,-0.090755,1,1
1202,31,-0.822377,0.083572,-0.223962,-0.086715,1,1
1225,31,-0.746536,-0.090868,-0.037540,-0.137250,1,1
1230,31,-0.752376,-0.063582,0.130991,-0.143919,1,1
1223,31,-0.836019,-0.080320,0.093911,-0.065856,1,1
1213,31,-0.796116,-0.127837,-0.154722,-0.081896,1,1
1208,31,-0.782035,0.043060,-0.131427,0.048267,1,1
1220,31,-0.781328,0.015276,0.057252,-0.030915,1,1
1204,31,-0.799316,0.023065,-0.175832,-0.003220,1,1
1221,31,-0.718682,-0.047579,0.020647,-0.230306,1,1
1237,31,-0.781894,0.003269,0.053002,-0.121807,1,1
1216,31,-0.768905,0.068713,-0.103423,-0.044246,1,1
1232,31,-0.791417,-0.056541,-0.004035,-0.086886,1,1
1209,31,-0.751937,-0.035339,-0.122706,-0.072232,1,1
1219,31,-0.745172,0.013860,-0.060025,-0.030268,1,1
1211,31,-0.819648,0.000493,-0.033766,-0.000490,1,1
1236,31,-0.805628,-0.078149,0.029318,-0.159369,1,1
1212,31,-0.768643,0.062343,-0.160473,0.014826,1,1
1234,31,-0.839452,-0.052605,0.060616,-0.081125,1,1
1214,31,-0.793168,0.028767,-0.158773,-0.080741,1,1
1238,31,-0.734883,0.028129,-0.025059,0.007714,1,1
1217,31,-0.791003,0.049475,-0.236175,0.050340,1,1
1215,31,-0.780753,0.000355,-0.124593,-0.067507,1,1
1205,31,-0.824897,0.032786,-0.092671,-0.015205,1,1
1239,31,-0.876650,-0.101072,0.157393,-0.128089,1,1
1222,31,-0.824143,0.022321,0.057960,-0.102604,1,1
1218,31,-0.809429,0.039494,-0.093236,-0.047856,1,1
1210,31,-0.712498,0.056754,-0.205332,-0.119259,1,1
1207,31,-0.816175,0.003648,-0.173700,-0.081249,1,1
1224,31,-0.798645,-0.101589,0.103484,-0.007929,1,1
1228,31,-0.798546,-0.060830,0.099851,-0.150603,1,1
1201,31,-0.865485,0.068165,-0.075083,-0.036355,1,1
1231,31,-0.824172,-0.081167,0.115900,-0.098941,1,1
1233,31,-0.880878,-0.067128,0.028615,-0.112486,1,1
1250,32,-0.796111,0.029574,-0.123200,-0.019225,1,1
1253,32,-0.795016,0.075610,-0.228480,-0.078964,1,1
1279,32,-0.765571,-0.075336,-0.034511,-0.131622,1,1
1252,32,-0.792599,-0.000168,-0.252147,-0.053563,1,1
1271,32,-0.835020,0.000210,0.016509,-0.078228,1,1
1244,32,-0.814298,-0.083517,-0.082177,-0.084944,1,1
1242,32,-0.769905,0.010874,-0.023397,-0.066432,1,1
1246,32,-0.815441,-0.060857,-0.158210,-0.131993,1,1
1264,32,-0.858061,-0.138470,0.015755,0.014967,0,1
1249,32,-0.693192,0.084123,-0.165439,-0.059701,1,0
1276,32,-0.767114,0.012995,0.043424,-0.109355,1,1
1260,32,-0.762692,-0.047872,-0.008377,-0.081425,1,1
1256,32,-0.776131,0.025554,-0.189058,-0.071580,1,1
1267,32,-0.795188,0.006114,-0.030512,0.002113,1,1
1274,32,-0.819251,-0.048157,0.097823,-0.101007,1,1
1262,32,-0.842805,0.044853,-0.045716,-0.098315,1,1
1268,32,-0.758290,-0.115865,0.083682,-0.052128,1,1
1241,32,-0.766104,-0.023771,-0.157776,-0.123464,1,1
1270,32,-0.809011,0.037953,0.003655,-0.142094,1,1
1255,32,-0.756823,-0.025304,-0.254197,-0.060339,1,1
1248,32,-0.762464,0.069525,-0.144070,-0.030916,1,1
1240,32,-0.783192,0.022775,-0.143089,-0.045724,1,1
1257,32,-0.790751,0.029586,-0.228344,-0.147129,1,1
1275,32,-0.760990,-0.061820,0.103453,-0.112530,1,1
1273,32,-0.836331,-0.049157,0.014877,-0.121014,1,1
1263,32,-0.793111,-0.124349,0.086808,-0.016422,1,1
1266,32,-0.817272,-0.000906,0.020106,-0.016969,1,1
1258,32,-0.756881,0.042698,-0.067166,-0.027480,1,1
1277,32,-0.832086,-0.063131,-0.007218,-0.040499,1,1
1265,32,-0.718823,-0.118043,0.047668,-0.154585,1,1
1247,32,-0.692660,0.039199,-0.143353,-0.084759,1,1
1269,32,-0.748733,-0.093913,0.080844,-0.163461,1,1
1259,32,-0.756448,-0.016521,-0.159369,0.052266,1,1
1245,32,-0.776200,-0.008208,-0.238891,-0.098382,1,1
1243,32,-0.870330,0.049631,-0.225510,-0.043311,1,1
1261,32,-0.789258,-0.039103,0.113944,-0.120200,1,1
1251,32,-0.722037,-0.006401,-0.226757,-0.051318,1,1
1254,32,-0.859557,-0.076181,-0.154692,0.127994,1,1
1272,32,-0.869563,-0.133113,0.046886,-0.129853,0,1
1278,32,-0.804519,-0.062531,0.122403,-0.028726,1,1
1306,33,-0.741392,-0.053089,0.038245,-0.123643,1,1
1284,33,-0.782668,-0.004224,-0.161813,-0.045903,1,1
1313,33,-0.835435,-0.088774,0.098112,-0.038872,1,1
1303,33,-0.779648,-0.062533,-0.004517,-0.115161,1,1
1301,33,-0.835724,-0.150654,0.000437,-0.080485,0,1
1300,33,-0.790491,-0.006360,0.076423,-0.140530,1,1
1302,33,-0.734806,-0.090543,0.071875,-0.076879,1,1
1304,33,-0.833489,-0.014886,0.124232,-0.042153,1,1
1285,33,-0.766151,0.007382,-0.241211,-0.008803,1,1
1312,33,-0.838419,-0.123238,0.026394,-0.060447,1,1
1311,33,-0.740263,-0.074956,-0.011713,-0.103051,1,1
1292,33,-0.844195,-0.071181,-0.069089,-0.055617,1,1
1295,33,-0.747815,-0.054825,-0.145791,-0.020282,1,1
1282,33,-0.853985,-0.046641,-0.034524,-0.028229,1,1
1317,33,-0.741280,0.010912,0.118286,-0.110044,1,1
1280,33,-0.693690,-0.075628,-0.226580,-0.055276,1,1
1308,33,-0.810401,-0.062413,0.051053,-0.082332,1,1
1314,33,-0.722868,-0.109080,0.012970,-0.176756,1,1
1305,33,-0.816583,-0.011742,-0.055144,-0.029829,1,1
1289,33,-0.753597,-0.019125,-0.133603,-0.157794,1,1
1316,33,-0.753697,0.026636,0.058326,-0.104471,1,1
1286,33,-0.777177,0.052115,-0.192599,0.017108,1,1
1296,33,-0.851424,0.021827,-0.145327,-0.112316,1,1
1309,33,-0.836173,-0.092707,0.014221,-0.086157,1,1
1288,33,-0.755680,0.016063,-0.175379,-0.072736,1,1
1297,33,-0.807523,0.015379,-0.141711,-0.092882,1,1
1283,33,-0.811270,-0.029694,-0.217950,-0.081961,1,1
1293,33,-0.777828,-0.002903,-0.162406,-0.073162,1,1
1281,33,-0.728789,0.024667,-0.194567,-0.037381,1,1
1318,33,-0.775387,0.018287,0.049287,0.007051,1,1
1287,33,-0.840008,0.025397,-0.147152,-0.018448,1,1
1299,33,-0.857586,0.011013,-0.123586,0.005924,1,1
1298,33,-0.754485,-0.006647,-0.209858,-0.116341,1,1
1307,33,-0.728293,-0.105880,0.080371,-0.134241,1,1
1290,33,-0.749151,-0.039416,-0.161538,-0.078192,1,1
1291,33,-0.807946,-0.002279,-0.122032,-0.052854,1,1
1294,33,-0.835826,0.007537,-0.163397,-0.155315,1,1
1319,33,-0.734246,-0.108586,0.103190,-0.040404,1,1
1315,33,-0.801850,-0.081904,0.034945,-0.111768,1,1
1310,33,-0.832248,-0.053219,-0.005271,-0.052870,1,1
1324,34,-0.762509,0.112010,-0.165818,-0.015291,1,0
1337,34,-0.738343,-0.062792,-0.075923,-0.089005,1,1
1327,34,-0.782830,0.019730,-0.105350,-0.109553,1,1
1323,34,-0.718263,0.017947,-0.086644,-0.057343,1,1
1331,34,-0.756346,-0.003576,-0.095137,-0.018159,1,1
1349,34,-0.764799,-0.122311,-0.037106,-0.088674,1,1
1341,34,-0.826966,-0.009891,0.109911,-0.072458,1,1
1346,34,-0.773442,-0.022972,-0.006267,-0.016309,1,1
1321,34,-0.821400,0.030608,-0.197845,-0.066319,1,1
1329,34,-0.801929,-0.024972,-0.116967,-0.077201,1,1
1359,34,-0.739318,0.006737,0.013601,-0.197258,1,1
1333,34,-0.783754,-0.057840,-0.142108,-0.036772,1,1
1322,34,-0.835064,-0.009734,-0.194336,-0.010279,1,1
1339,34,-0.779802,-0.014901,-0.116301,-0.047424,1,1
1347,34,-0.730563,0.008259,0.094101,-0.157277,1,1
1330,34,-0.719163,0.003725,-0.136066,-0.061054,1,1
1353,34,-0.811725,-0.055921,0.078862,-0.081003,1,1
1336,34,-0.807308,0.001139,-0.114985,0.023750,1,1
1328,34,-0.770881,0.133252,-0.225456,-0.036045,1,0
1343,34,-0.741076,-0.068535,0.022301,-0.100778,1,1
1340,34,-0.902525,-0.058941,0.085556,-0.009497,1,1
1338,34,-0.755755,0.085291,-0.038202,-0.091398,1,1
1342,34,-0.781198,-0.100722,0.047628,-0.038906,1,1
1334,34,-0.682094,-0.089632,-0.054148,-0.072288,1,1
1356,34,-0.828489,-0.057525,0.057744,-0.110662,1,1
1335,34,-0.857124,0.009815,-0.094216,-0.036794,1,1
1326,34,-0.824590,0.065079,-0.195569,-0.008245,1,1
1325,34,-0.705653,0.039933,-0.163346,-0.085366,1,1
1358,34,-0.833309,-0.033211,0.061776,-0.078633,1,1
1355,34,-0.714247,-0.006999,0.011106,-0.043477,1,1
1352,34,-0.818822,0.039020,0.069674,-0.028258,1,1
1351,34,-0.838463,-0.091253,0.113159,-0.082071,1,1
1357,34,-0.646238,-0.104486,0.143083,-0.080098,0,1
1344,34,-0.761783,-0.053799,-0.021257,-0.093611,1,1
1350,34,-0.760821,-0.034554,0.115222,-0.079443,1,1
1345,34,-0.778559,-0.074551,0.046067,-0.119947,1,1
1332,34,-0.753008,0.017438,-0.136185,-0.175686,1,1
1348,34,-0.924355,-0.109869,0.151735,-0.067113,0,1
1320,34,-0.781957,-0.051148,-0.229130,-0.045396,1,1
1354,34,-0.861927,-0.044813,0.129752,-0.060527,1,1
1372,35,-0.679575,0.045099,-0.073773,-0.016078,1,1
1388,35,-0.776308,-0.012357,0.043704,-0.083446,1,1
1362,35,-0.734156,-0.026791,-0.126284,-0.025144,1,1
1382,35,-0.807282,-0.070566,0.073454,0.012398,1,1
1396,35,-0.772535,-0.106543,0.042822,-0.051371,1,1
1391,35,-0.764360,-0.103036,0.130290,-0.101269,1,1
1383,35,-0.809462,-0.007784,0.135836,-0.023773,1,1
1399,35,-0.769531,-0.114991,0.078915,-0.146580,1,1
1363,35,-0.769162,0.052098,-0.235536,-0.080534,1,1
1398,35,-0.843548,0.032764,0.096580,-0.188640,1,1
1378,35,-0.751136,0.033189,-0.091405,-0.012275,1,1
1387,35,-0.822458,-0.134022,0.054412,-0.078628,1,1
1366,35,-0.830430,0.088096,-0.150842,-0.148870,1,0
1373,35,-0.764946,0.050327,-0.190855,-0.062242,1,1
1375,35,-0.794274,-0.028664,-0.161185,0.011341,1,1
1397,35,-0.825623,-0.087358,-0.005551,-0.058327,1,1
1380,35,-0.840382,-0.096141,0.063046,-0.106699,1,1
1394,35,-0.868182,-0.078976,0.001935,-0.087259,1,1
1385,35,-0.898892,-0.060622,0.022276,-0.081407,1,1
1374,35,-0.753321,-0.009513,-0.216233,-0.122842,1,1
1361,35,-0.734896,0.037305,-0.069472,0.003305,1,1
1390,35,-0.861242,-0.060515,-0.068919,-0.125521,1,1
1386,35,-0.726215,-0.083741,0.076457,-0.026101,1,1
1370,35,-0.776237,-0.032170,-0.086837,-0.102505,1,1
1393,35,-0.707322,-0.018988,0.025998,-0.182607,1,1
1369,35,-0.840717,-0.007544,-0.207146,-0.043813,1,1
1379,35,-0.778951,0.004956,-0.170739,-0.122115,1,1
1384,35,-0.727687,-0.029481,-0.002032,-0.099505,1,1
1376,35,-0.849949,0.013070,-0.261387,-0.043289,1,1
1392,35,-0.802859,-0.047505,-0.007367,-0.043334,1,1
1381,35,-0.809698,-0.090516,-0.048410,-0.109374,1,1
1389,35,-0.752729,-0.032490,0.115699,0.086237,1,1
1368,35,-0.884723,-0.018195,-0.124923,-0.044427,1,1
1364,35,-0.721162,0.020502,-0.135329,-0.054748,1,1
1360,35,-0.761306,-0.044941,-0.161895,-0.136572,1,1
1371,35,-0.764170,-0.042715,-0.211512,-0.072035,1,1
1367,35,-0.823743,0.050190,-0.177595,-0.057607,1,1
1395,35,-0.678211,-0.160931,0.051541,-0.144688,0,1
1365,35,-0.812532,-0.007209,-0.198519,0.016252,1,1
1377,35,-0.770399,-0.011961,-0.130252,-0.072826,1,1
1439,36,-0.848027,-0.092396,0.064806,-0.025385,1,1
1411,36,-0.714995,-0.013918,-0.198404,0.012391,1,1
1403,36,-0.707779,0.044306,-0.141656,-0.067095,1,1
1419,36,-0.722597,-0.044922,-0.170803,-0.082990,1,1
1404,36,-0.857936,0.108970,-0.265475,-0.056332,1,0
1410,36,-0.746911,-0.027949,-0.097241,-0.165729,1,1
1414,36,-0.759349,0.030961,-0.113370,-0.109991,1,1
1431,36,-0.807730,-0.069544,0.017101,-0.021475,1,1
1420,36,-0.731124,0.062281,0.118209,-0.151370,1,1
1424,36,-0.844848,0.016404,0.094370,-0.178209,1,1
1405,36,-0.767903,-0.035070,-0.159170,0.030295,1,1
1400,36,-0.807642,-0.105206,-0.137556,-0.032056,1,1
1436,36,-0.842599,-0.102921,0.003993,-0.116099,1,1
1407,36,-0.759830,-0.031898,-0.128792,-0.002933,1,1
1422,36,-0.871917,-0.080524,0.092855,0.017889,1,1
1429,36,-0.754165,-0.188824,0.054394,-0.106432,0,1
1434,36,-0.779196,-0.029373,0.075725,-0.103792,1,1
1425,36,-0.826356,-0.030919,0.017220,-0.154242,1,1
1430,36,-0.820910,-0.100382,0.089134,-0.121587,1,1
1409,36,-0.676505,0.055308,-0.171577,-0.054936,1,0
1432,36,-0.811227,-0.050274,0.026927,-0.121021,1,1
1402,36,-0.703260,0.009364,-0.106371,0.024249,1,1
1423,36,-0.843241,-0.086086,0.089132,0.010918,1,1
1433,36,-0.758745,0.052662,0.044339,-0.108028,1,1
1401,36,-0.882481,-0.043599,-0.147308,-0.114983,1,1
1417,36,-0.782677,0.029553,-0.159235,-0.142496,1,1
1416,36,-0.832843,-0.084814,-0.167738,-0.031358,1,1
1437,36,-0.760057,-0.037374,0.038824,-0.031912,1,1
1408,36,-0.868249,0.003089,-0.148370,-0.056867,1,1
1435,36,-0.849735,-0.014397,0.001562,-0.164813,1,1
1406,36,-0.766826,0.126194,-0.166804,-0.075976,1,0
1438,36,-0.738875,-0.102573,0.036901,-0.187524,1,1
1418,36,-0.765080,0.018853,-0.191068,-0.159649,1,1
1427,36,-0.860287,-0.111348,0.012831,-0.070261,1,1
1415,36,-0.763489,0.040342,-0.183787,-0.104050,1,1
1412,36,-0.815813,0.026213,-0.165116,-0.003355,1,1
1413,36,-0.733062,-0.019143,-0.172942,-0.016152,1,1
1428,36,-0.820170,-0.118381,0.009245,-0.146592,1,1
1426,36,-0.788072,0.045218,0.093687,-0.040121,1,1
1421,36,-0.806302,-0.042746,0.043906,-0.110823,1,1
1455,37,-0.810841,0.014972,-0.157301,-0.086202,1,1
1473,37,-0.791190,-0.062079,0.066348,-0.140128,1,1
1478,37,-0.802276,0.003263,0.034021,-0.050969,1,1
1475,37,-0.840379,-0.110293,-0.056620,-0.077022,1,1
1456,37,-0.732140,-0.074281,-0.179559,-0.093875,1,1
1453,37,-0.755420,-0.044353,-0.184886,-0.042344,1,1
1469,37,-0.763197,-0.154103,0.113992,-0.174522,0,1
1477,37,-0.805131,-0.110895,0.069822,-0.109029,1,1
1466,37,-0.818569,-0.070257,-0.030633,-0.066968,1,1
1442,37,-0.808692,0.030673,-0.158238,-0.058800,1,1
1476,37,-0.754190,-0.029018,0.122284,-0.099468,1,1
1444,37,-0.743647,0.010788,-0.135423,-0.065541,1,1
1467,37,-0.789138,-0.115060,0.088113,-0.070411,1,1
1443,37,-0.782590,0.060302,-0.052558,-0.090097,1,1
1450,37,-0.856745,0.020240,-0.134984,-0.058803,1,1
1457,37,-0.755528,-0.107977,-0.182954,-0.108094,1,1
1464,37,-0.784989,0.017241,0.086555,-0.085135,1,1
1474,37,-0.755627,0.024985,0.086318,-0.079198,1,1
1463,37,-0.799403,-0.141725,0.118769,-0.106001,1,1
1462,37,-0.826521,0.000737,0.054115,-0.089340,1,1
1440,37,-0.848376,-0.056919,-0.149786,-0.067726,1,1
1446,37,-0.857244,0.087705,-0.202770,-0.060308,1,0
1461,37,-0.850074,-0.013020,0.140379,-0.031728,1,1
1448,37,-0.738243,-0.073955,-0.151863,-0.151685,1,1
1479,37,-0.788536,-0.042371,0.026493,-0.062635,1,1
1459,37,-0.707467,-0.029240,-0.091223,-0.084784,1,1
1468,37,-0.688532,-0.062868,0.123193,-0.098541,1,1
1472,37,-0.728876,-0.086595,-0.010877,-0.086474,1,1
1458,37,-0.590709,-0.011951,-0.191994,-0.125976,1,0
1451,37,-0.726871,-0.050143,-0.180160,0.019174,1,1
1449,37,-0.828275,0.004446,-0.174849,-0.034370,1,1
1470,37,-0.794820,-0.111000,0.050621,-0.063593,1,1
1454,37,-0.782839,-0.009309,-0.136405,-0.022039,1,1
1465,37,-0.842997,-0.022063,0.049798,-0.114949,1,1
1471,37,-0.724108,-0.058829,0.110583,-0.113901,1,1
1447,37,-0.810601,0.027293,-0.144020,-0.079480,1,1
1441,37,-0.671239,0.084858,-0.103103,-0.095576,1,0
1445,37,-0.806663,0.006140,-0.253417,-0.030130,1,1
1452,37,-0.722961,-0.027735,-0.239859,-0.083159,1,1
1460,37,-0.707621,-0.093607,-0.002278,-0.183634,1,1
1503,38,-0.672361,-0.103513,-0.019206,-0.112857,1,1
1483,38,-0.784251,-0.089172,-0.184863,-0.057916,1,1
1515,38,-0.828049,-0.077687,0.002829,-0.064715,1,1
1502,38,-0.819235,-0.067942,0.119815,-0.134896,1,1
1512,38,-0.741977,0.059593,0.050977,-0.055483,1,1
1506,38,-0.794365,-0.109578,0.077702,-0.039885,1,1
1486,38,-0.693978,-0.001326,-0.126613,-0.106309,1,1
1508,38,-0.794500,0.055671,0.055070,-0.046859,1,1
1501,38,-0.802782,-0.092988,0.118466,-0.141786,1,1
1510,38,-0.775957,-0.095069,0.128164,-0.093330,1,1
1498,38,-0.725450,0.016371,-0.057887,-0.022523,1,1
1493,38,-0.818438,-0.039099,-0.169267,-0.098158,1,1
1496,38,-0.763442,0.071509,-0.167587,-0.076301,1,1
1513,38,-0.714772,-0.115853,0.087262,-0.074371,1,1
1505,38,-0.800684,-0.088213,0.022810,-0.003805,1,1
1516,38,-0.755780,0.007931,0.077773,-0.066624,1,1
1511,38,-0.692955,-0.108273,0.024420,-0.009236,1,1
1480,38,-0.740071,-0.023481,-0.130749,-0.024060,1,1
1500,38,-0.794803,-0.064419,0.026441,-0.114049,1,1
1489,38,-0.786312,-0.085048,-0.137624,-0.109209,1,1
1517,38,-0.832510,-0.065072,0.064338,-0.078559,1,1
1484,38,-0.781379,0.024473,-0.153598,-0.034213,1,1
1497,38,-0.777899,0.089747,-0.096457,-0.092316,1,1
1488,38,-0.909208,0.057583,-0.205169,0.021044,1,0
1499,38,-0.678003,-0.053543,-0.099558,-0.042061,1,1
1485,38,-0.827967,-0.019112,-0.160075,0.036907,1,1
1490,38,-0.859677,0.036444,-0.185875,-0.088876,1,1
1481,38,-0.794794,0.040291,-0.236955,-0.033351,1,1
1509,38,-0.794913,-0.005893,0.097458,-0.097495,1,1
1514,38,-0.719170,-0.038380,0.088120,-0.007795,1,1
1504,38,-0.845199,-0.037193,0.033250,-0.145207,1,1
1494,38,-0.754499,0.060966,-0.170601,-0.093337,1,1
1492,38,-0.809140,-0.005065,-0.164353,0.010318,1,1
1491,38,-0.826954,-0.006823,-0.186566,-0.044299,1,1
1519,38,-0.706310,-0.073678,0.058803,-0.051952,1,1
1495,38,-0.838512,-0.071611,-0.120584,-0.069970,1,1
1507,38,-0.801545,-0.027500,0.100320,-0.097442,1,1
1518,38,-0.784194,-0.080371,-0.006446,-0.143456,1,1
1482,38,-0.745525,0.055366,-0.144580,-0.079834,1,1
1487,38,-0.764912,0.016524,-0.075715,-0.074831,1,1
1532,39,-0.786954,0.033093,-0.083058,-0.058585,1,1
1528,39,-0.748963,-0.004671,0.053895,-0.106487,1,1
1545,39,-0.792944,-0.064299,0.114192,-0.116234,1,1
1558,39,-0.666985,-0.078584,-0.008328,-0.135747,1,1
1550,39,-0.759136,0.019274,0.058510,-0.025625,1,1
1543,39,-0.800008,-0.010168,0.063487,-0.157242,1,1
1552,39,-0.777771,-0.095325,0.110411,-0.002687,1,1
1530,39,-0.705426,0.071030,-0.008438,-0.045106,1,0
1536,39,-0.775272,0.033498,-0.053277,0.016790,1,1
1537,39,-0.704375,-0.016400,0.006493,-0.043693,1,1
1534,39,-0.778214,-0.025595,-0.064330,0.047316,1,1
1525,39,-0.697313,0.075905,0.053748,0.081031,1,0
1544,39,-0.771829,-0.009706,0.090682,-0.004370,1,1
1542,39,-0.796749,-0.052841,0.104396,-0.065725,1,1
1531,39,-0.752257,-0.014789,0.072722,0.071361,1,1
1546,39,-0.936014,-0.054054,0.054521,-0.176330,0,1
1559,39,-0.849749,-0.065179,-0.007638,-0.128664,1,1
1548,39,-0.781061,-0.052899,-0.075510,-0.079401,1,1
1551,39,-0.781689,-0.093473,-0.064061,-0.083453,1,1
1520,39,-0.661627,-0.033020,-0.047323,0.038750,1,1
1547,39,-0.851234,-0.030632,0.006392,-0.061842,1,1
1523,39,-0.821058,-0.025540,0.008233,-0.012092,1,1
1539,39,-0.804326,-0.043837,-0.018132,-0.028728,1,1
1522,39,-0.773377,-0.073234,0.002194,0.014142,1,1
1554,39,-0.773474,-0.049645,0.016006,-0.103020,1,1
1541,39,-0.876640,-0.039033,0.052777,-0.058253,1,1
1529,39,-0.768211,0.053678,-0.109068,-0.098923,1,1
1524,39,-0.785341,-0.124116,-0.106925,-0.104205,1,1
1526,39,-0.680932,0.028303,0.055736,-0.110583,1,1
1555,39,-0.814330,-0.059705,0.068944,-0.141554,1,1
1533,39,-0.730643,0.042670,-0.150646,0.079798,1,1
1540,39,-0.779012,-0.028645,0.066685,-0.085582,1,1
1557,39,-0.768406,0.044797,-0.017333,-0.067240,1,1
1527,39,-0.654014,-0.063635,0.025884,0.012792,1,1
1535,39,-0.731964,0.095238,-0.011639,-0.035369,1,0
1553,39,-0.857673,-0.072011,0.072801,-0.125462,1,1
1538,39,-0.825008,-0.024133,0.017647,0.094825,1,1
1521,39,-0.785199,0.049725,-0.021664,0.024468,1,1
1549,39,-0.688972,-0.071653,0.014014,-0.015508,1,1
1556,39,-0.743019,-0.052787,0.103748,-0.054393,1,1
1577,40,-0.842328,-0.104831,-0.065593,-0.004328,1,1
1582,40,-0.810851,-0.001303,-0.030307,-0.009855,1,1
1579,40,-0.763884,0.032516,-0.049064,-0.037720,1,1
1597,40,-0.759079,-0.028071,0.149330,-0.034941,1,1
1563,40,-0.855606,-0.077445,-0.123661,0.012255,1,1
1562,40,-0.732668,-0.016424,0.000939,0.011127,1,1
1592,40,-0.853065,-0.057591,0.016342,-0.089180,1,1
1598,40,-0.749811,-0.105844,0.133253,-0.073305,1,1
1565,40,-0.788743,0.001209,-0.029270,-0.032937,1,1
1564,40,-0.783162,-0.104032,0.054958,0.036572,1,1
1570,40,-0.729618,0.008967,-0.121947,-0.042527,1,1
1566,40,-0.775795,-0.065268,-0.000704,0.032258,1,1
1595,40,-0.779920,-0.035423,0.039370,-0.100825,1,1
1572,40,-0.714675,0.006393,-0.058613,0.020160,1,1
1594,40,-0.745364,0.036860,0.073780,-0.114677,1,1
1580,40,-0.788793,-0.046813,-0.018251,-0.148689,1,1
1587,40,-0.766284,-0.030893,0.074099,-0.087511,1,1
1590,40,-0.777195,-0.077811,0.037291,-0.153397,1,1
1571,40,-0.731299,0.022976,-0.024022,0.051719,1,1
1561,40,-0.782826,0.031368,-0.029340,0.064475,1,1
1585,40,-0.915510,-0.071596,0.042958,-0.119501,0,1
1593,40,-0.814392,-0.098294,0.069661,-0.110630,1,1
1588,40,-0.715145,-0.077729,0.056827,-0.102771,1,1
1560,40,-0.783266,-0.018927,-0.008153,0.027267,1,1
1599,40,-0.712195,-0.121285,0.058315,-0.042799,1,1
1586,40,-0.808962,-0.053749,0.084140,-0.005770,1,1
1578,40,-0.773163,0.052712,-0.097790,0.104655,1,1
1583,40,-0.766382,-0.067227,0.060138,-0.094672,1,1
1576,40,-0.803843,0.097350,-0.016952,-0.034305,1,0
1575,40,-0.793998,-0.003621,-0.090214,0.044191,1,1
1573,40,-0.697190,0.079449,-0.001251,-0.037452,1,0
1584,40,-0.729768,-0.123855,-0.032325,-0.013991,1,1
1591,40,-0.847580,-0.134876,0.091007,-0.170171,0,1
1596,40,-0.758342,-0.087058,0.053387,-0.100637,1,1
1574,40,-0.787819,-0.021560,0.026118,0.052455,1,1
1589,40,-0.742379,0.008470,0.071343,-0.034999,1,1
1569,40,-0.724521,-0.016008,-0.025671,-0.064250,1,1
1567,40,-0.785068,0.009315,-0.006674,-0.022032,1,1
1568,40,-0.728160,-0.013745,-0.060788,-0.008698,1,1
1581,40,-0.779982,-0.033966,-0.039653,-0.155120,1,1
1620,41,-0.741358,-0.123215,-0.196740,-0.074282,1,1
1601,41,-0.713440,-0.018657,0.010175,0.006300,1,1
1633,41,-0.790618,-0.083598,-0.129144,0.016536,1,1
1610,41,-0.757898,-0.003143,-0.050763,-0.053611,1,1
1637,41,-0.778682,-0.063619,-0.172461,-0.174370,1,1
1606,41,-0.723377,0.047538,0.023397,0.044281,1,1
1616,41,-0.733694,-0.039832,-0.107655,0.059809,1,1
1636,41,-0.828886,-0.022485,-0.203747,-0.187703,1,1
1638,41,-0.703069,-0.075299,-0.197926,-0.148329,1,1
1632,41,-0.889484,-0.059047,-0.127935,-0.048017,1,1
1605,41,-0.703307,-0.007594,0.044518,-0.047794,1,1
1619,41,-0.812529,0.038825,-0.010641,0.033619,1,1
1625,41,-0.768217,0.001368,-0.099018,-0.128781,1,1
1602,41,-0.860464,-0.030455,-0.055140,0.001936,1,1
1635,41,-0.745257,-0.006425,-0.149514,-0.122616,1,1
1624,41,-0.803199,-0.079903,-0.098912,-0.093722,1,1
1623,41,-0.819787,-0.071527,-0.103812,-0.076504,1,1
1615,41,-0.773710,0.062297,0.018803,0.068384,1,1
1622,41,-0.755795,-0.016213,-0.054379,-0.092397,1,1
1628,41,-0.772575,-0.090733,-0.172754,-0.074812,1,1
1604,41,-0.702283,-0.069821,0.020363,-0.070471,1,1
1629,41,-0.803417,-0.118394,-0.144262,-0.143375,1,1
1607,41,-0.766205,-0.050792,-0.033731,0.062037,1,1
1617,41,-0.732500,-0.044980,0.009915,-0.058749,1,1
1614,41,-0.771130,-0.037353,-0.097561,0.097138,1,1
1603,41,-0.744319,-0.012564,-0.025367,0.033546,1,1
1600,41,-0.791322,0.010852,-0.004905,0.032754,1,1
1618,41,-0.764668,0.030529,-0.045188,-0.000660,1,1
1609,41,-0.845064,-0.032127,-0.002078,0.069622,1,1
1626,41,-0.759050,0.016273,-0.198048,-0.171632,1,1
1630,41,-0.794877,-0.081249,-0.032862,-0.129053,1,1
1631,41,-0.723615,-0.115006,-0.143698,-0.091433,1,1
1613,41,-0.744194,0.029453,-0.112104,-0.038120,1,1
1621,41,-0.732936,-0.132450,-0.086697,-0.140672,1,1
1627,41,-0.818390,-0.041877,-0.122696,-0.016502,1,1
1612,41,-0.781906,0.018278,-0.115369,-0.012456,1,1
1634,41,-0.793070,-0.047464,-0.248152,-0.131272,1,1
1611,41,-0.785295,0.029812,-0.019879,0.050683,1,1
1639,41,-0.838035,-0.082010,-0.165816,-0.146873,1,1
1608,41,-0.757031,0.013461,-0.005825,-0.008394,1,1
1669,42,-0.849889,-0.036830,-0.113026,-0.136971,1,1
1673,42,-0.681117,0.016438,-0.106872,-0.082428,1,1
1649,42,-0.709690,0.056750,0.075443,0.033671,1,1
1657,42,-0.799707,-0.086480,-0.059524,-0.014342,1,1
1654,42,-0.713712,0.044201,-0.010368,0.048912,1,1
1671,42,-0.727379,-0.123179,-0.188610,-0.126178,1,1
1641,42,-0.721602,-0.015102,-0.076283,-0.003290,1,1
1667,42,-0.737457,-0.079429,-0.170302,-0.036710,1,1
1664,42,-0.806315,-0.053882,-0.188107,-0.092775,1,1
1644,42,-0.767005,0.034577,-0.070895,0.004265,1,1
1665,42,-0.780823,-0.064064,-0.104592,-0.157651,1,1
1653,42,-0.813209,0.065693,-0.067208,-0.016381,1,1
1655,42,-0.775559,0.021022,0.017148,-0.047523,1,1
1661,42,-0.815438,-0.026967,-0.202443,-0.175455,1,1
1666,42,-0.796106,-0.039082,-0.168656,-0.094246,1,1
1651,42,-0.791381,-0.072998,-0.090653,-0.130492,1,1
1662,42,-0.872669,-0.079147,-0.157697,-0.192304,1,1
1663,42,-0.773219,-0.018732,-0.124955,-0.092790,1,1
1648,42,-0.785605,-0.072411,-0.045223,-0.011668,1,1
1670,42,-0.731111,-0.084563,-0.033224,-0.145722,1,1
1652,42,-0.817058,0.028272,-0.036634,0.026267,1,1
1658,42,-0.704290,0.034455,-0.044897,0.026397,1,1
1672,42,-0.842080,-0.083567,-0.128666,-0.065784,1,1
1650,42,-0.793768,0.029076,-0.059092,-0.016889,1,1
1647,42,-0.735837,0.010506,-0.007231,0.017836,1,1
1656,42,-0.735549,-0.051643,-0.066247,-0.012435,1,1
1642,42,-0.764078,0.007819,-0.045670,-0.028755,1,1
1640,42,-0.815015,-0.030554,-0.003466,-0.031416,1,1
1643,42,-0.773363,0.035940,-0.057331,0.029167,1,1
1645,42,-0.745491,-0.006872,-0.042897,0.016183,1,1
1646,42,-0.747479,0.041239,0.069632,0.118852,1,1
1659,42,-0.691362,0.054351,-0.025298,0.007176,1,1
1678,42,-0.737713,-0.044146,-0.127358,-0.180497,1,1
1679,42,-0.763168,-0.069266,-0.164484,-0.087393,1,1
1660,42,-0.868482,-0.043385,-0.145482,-0.232924,1,1
1675,42,-0.737570,-0.055504,-0.103631,-0.153026,1,1
1676,42,-0.775436,-0.128894,-0.173931,-0.183857,1,1
1677,42,-0.796056,-0.081360,-0.104656,-0.195861,1,1
1668,42,-0.798050,-0.108511,-0.210504,-0.110765,1,1
1674,42,-0.856768,0.067907,-0.141178,-0.186436,1,1
1680,43,-0.711658,0.055379,0.026206,-0.009164,1,1
1698,43,-0.805970,-0.037612,0.028335,-0.029059,1,1
1690,43,-0.740460,-0.026814,-0.003694,-0.069355,1,1
1711,43,-0.727925,0.007375,-0.097163,-0.222132,1,1
1707,43,-0.760882,-0.045228,-0.157834,-0.106150,1,1
1700,43,-0.897081,-0.127238,-0.092119,-0.122355,0,1
1688,43,-0.734466,-0.025862,-0.016801,-0.003463,1,1
1686,43,-0.771732,-0.015822,0.098496,0.012459,1,1
1717,43,-0.650582,-0.065243,-0.116128,-0.111748,1,1
1708,43,-0.862285,0.035898,-0.201734,-0.111936,1,1
1682,43,-0.621522,-0.084300,-0.096851,0.095381,1,0
1706,43,-0.686074,0.076094,-0.227150,-0.261442,1,1
1691,43,-0.751511,-0.050538,-0.157109,0.017036,1,1
1683,43,-0.817127,-0.023127,-0.080231,-0.018346,1,1
1716,43,-0.688205,-0.031420,-0.094736,-0.144631,1,1
1695,43,-0.740145,0.056597,-0.065937,0.026311,1,1
1689,43,-0.755098,0.000258,0.056054,-0.011341,1,1
1709,43,-0.815727,-0.063314,-0.196070,-0.140128,1,1
1710,43,-0.747549,0.038239,-0.268628,-0.135787,1,1
1699,43,-0.668606,0.077369,-0.091142,0.110395,1,0
1701,43,-0.727951,-0.204648,-0.055483,-0.094143,0,1
1713,43,-0.792315,0.003911,-0.074990,-0.171818,1,1
1693,43,-0.621122,-0.016173,-0.002924,-0.090851,1,0
1719,43,-0.826591,-0.075134,-0.194805,-0.219602,1,1
1702,43,-0.711600,-0.082768,-0.095860,-0.187724,1,1
1681,43,-0.797388,-0.034167,0.065400,-0.056211,1,1
1715,43,-0.719422,-0.043721,-0.084088,-0.089996,1,1
1718,43,-0.853523,-0.016258,-0.113035,-0.106768,1,1
1704,43,-0.817200,-0.089372,-0.147919,-0.144508,1,1
1705,43,-0.837063,0.034151,-0.148357,-0.214504,1,1
1714,43,-0.714292,-0.051842,-0.191955,-0.109507,1,1
1712,43,-0.829260,-0.064566,-0.212825,-0.190946,1,1
1684,43,-0.710185,-0.072912,0.037125,-0.046418,1,1
1703,43,-0.673039,0.055051,-0.131389,-0.126668,1,1
1692,43,-0.689065,-0.025866,0.037131,-0.066765,1,1
1687,43,-0.772340,0.036156,-0.054461,0.026001,1,1
1697,43,-0.810157,0.041419,-0.046481,0.023734,1,1
1696,43,-0.769621,-0.002767,-0.087456,-0.026218,1,1
1685,43,-0.753625,0.132218,-0.033911,0.009540,1,0
1694,43,-0.718793,-0.038396,-0.081966,0.081924,1,1
1722,44,-0.766162,0.038680,-0.062361,0.017512,1,1
1759,44,-0.743150,-0.021586,-0.037419,-0.130833,1,1
1748,44,-0.748320,-0.026789,-0.203946,-0.173492,1,1
1729,44,-0.755622,-0.074797,-0.049926,0.033780,1,1
1732,44,-0.776547,0.008489,0.053953,-0.009513,1,1
1723,44,-0.743463,0.025004,0.002910,0.036693,1,1
1737,44,-0.746706,0.000503,-0.020344,0.018665,1,1
1740,44,-0.768607,-0.124823,-0.161707,-0.085948,1,1
1745,44,-0.898786,-0.025596,-0.234801,-0.163084,1,1
1753,44,-0.797537,-0.087152,-0.122273,-0.172921,1,1
1726,44,-0.650699,-0.049407,-0.008815,0.011785,1,1
1738,44,-0.705544,-0.032711,-0.080324,-0.176343,1,1
1731,44,-0.857695,0.019719,0.023351,-0.062332,1,1
1751,44,-0.788411,-0.093710,-0.199355,-0.134396,1,1
1736,44,-0.692063,-0.028609,-0.054268,-0.058074,1,1
1758,44,-0.763456,-0.097340,-0.231953,-0.117537,1,1
1725,44,-0.753190,-0.020400,-0.034955,0.018053,1,1
1721,44,-0.831661,-0.047792,-0.140428,-0.133517,1,1
1750,44,-0.768380,-0.085007,-0.076193,-0.154878,1,1
1755,44,-0.702704,-0.033083,-0.184754,-0.120492,1,1
1752,44,-0.713090,-0.093108,-0.102325,-0.120261,1,1
1749,44,-0.815502,-0.061245,-0.141331,-0.109219,1,1
1746,44,-0.705443,-0.104445,-0.148402,-0.195374,1,1
1730,44,-0.769628,-0.050355,0.018851,0.013997,1,1
1733,44,-0.729774,0.001701,-0.001754,0.007542,1,1
1728,44,-0.728806,0.002646,-0.014149,-0.059810,1,1
1754,44,-0.754295,-0.077803,-0.108049,-0.126692,1,1
1734,44,-0.761372,0.013309,0.056072,0.084018,1,1
1739,44,-0.728138,0.093421,-0.026888,0.002063,1,0
1744,44,-0.692961,-0.094524,-0.124522,-0.103838,1,1
1747,44,-0.776529,-0.036223,-0.103663,-0.139454,1,1
1741,44,-0.806934,0.051922,-0.117168,-0.100038,1,1
1735,44,-0.878551,-0.132154,-0.030349,-0.071663,1,1
1724,44,-0.683003,-0.052740,0.056451,0.025539,1,1
1743,44,-0.712457,0.011892,-0.128333,-0.117475,1,1
1720,44,-0.744337,0.054351,-0.077745,-0.063086,1,1
1756,44,-0.762095,-0.004238,-0.094713,-0.111215,1,1
1727,44,-0.760009,0.109030,0.028099,-0.044583,1,0
1757,44,-0.805597,-0.069785,-0.153351,-0.129144,1,1
1742,44,-0.755269,-0.037535,-0.183122,-0.108778,1,1
1782,45,-0.710027,-0.068197,-0.129102,-0.019170,1,1
1793,45,-0.847585,-0.103388,-0.161524,-0.173177,1,1
1797,45,-0.719221,-0.084077,-0.190542,-0.067018,1,1
1761,45,-0.824983,-0.004257,0.000708,0.018372,1,1
1785,45,-0.737555,-0.043284,-0.175475,-0.121187,1,1
1798,45,-0.802522,-0.074247,-0.140036,-0.160441,1,1
1778,45,-0.771263,-0.007695,-0.061836,-0.009378,1,1
1766,45,-0.785943,0.072782,-0.077546,0.018896,1,1
1780,45,-0.737449,-0.021593,-0.078796,-0.083775,1,1
1771,45,-0.784897,0.011329,-0.101953,0.140363,1,1
1776,45,-0.812223,-0.052161,-0.022131,0.003077,1,1
1770,45,-0.687443,0.128371,-0.044936,0.042039,1,0
1764,45,-0.800033,-0.018874,-0.097964,0.043500,1,1
1777,45,-0.766756,0.042707,-0.051147,0.052078,1,1
1774,45,-0.736435,0.011215,-0.039384,-0.061533,1,1
1767,45,-0.639946,-0.050217,-0.004515,-0.030040,1,1
1789,45,-0.785358,0.067442,-0.104760,-0.152502,1,1
1781,45,-0.802093,0.001401,-0.177075,-0.197207,1,1
1799,45,-0.895675,-0.102951,-0.107574,-0.032600,0,1
1786,45,-0.803915,-0.120276,-0.207456,-0.073150,1,1
1796,45,-0.819229,-0.124033,-0.086234,-0.181732,1,1
1768,45,-0.699873,0.008651,-0.039613,0.015683,1,1
1788,45,-0.761077,0.016023,-0.208387,-0.116689,1,1
1787,45,-0.693961,-0.059317,-0.171110,-0.019256,1,1
1791,45,-0.765877,0.029259,-0.134603,-0.145830,1,1
1779,45,-0.688520,0.069977,-0.046806,-0.033541,1,0
1765,45,-0.691771,0.024541,-0.143332,-0.020838,1,1
1760,45,-0.774482,-0.005558,0.001910,0.031976,1,1
1790,45,-0.822928,-0.070636,-0.189851,-0.158105,1,1
1795,45,-0.722902,-0.093524,-0.062922,-0.203427,1,1
1769,45,-0.800150,0.049099,-0.039706,-0.013968,1,1
1794,45,-0.769418,-0.060606,-0.251583,-0.112338,1,1
1773,45,-0.785599,0.011733,-0.034357,0.019738,1,1
1784,45,-0.749231,-0.117499,-0.169458,-0.181547,1,1
1792,45,-0.695380,-0.058718,-0.146799,-0.181358,1,1
1783,45,-0.759026,0.018494,-0.143006,-0.072792,1,1
1762,45,-0.804340,-0.049751,0.002314,-0.034465,1,1
1763,45,-0.665722,0.040105,0.006731,0.004100,1,1
1775,45,-0.622878,-0.010187,-0.046319,0.031774,1,0
1772,45,-0.717603,0.012975,0.029688,-0.029358,1,1
1816,46,-0.724105,0.046334,0.033240,0.010190,1,1
1839,46,-0.799316,0.050569,-0.148361,-0.022539,1,1
1808,46,-0.816255,0.036727,-0.082026,-0.029481,1,1
1828,46,-0.792841,-0.095663,-0.071514,-0.089263,1,1
1819,46,-0.748102,-0.022204,-0.016816,0.009149,1,1
1807,46,-0.715031,0.031232,-0.114080,0.050100,1,1
1826,46,-0.813014,-0.097413,-0.147172,-0.170705,1,1
1821,46,-0.783535,0.031645,-0.140262,-0.287415,1,1
1833,46,-0.786376,-0.048301,-0.161228,-0.061635,1,1
1825,46,-0.808643,-0.024582,-0.064288,-0.188204,1,1
1811,46,-0.732618,-0.033642,-0.012248,0.013159,1,1
1827,46,-0.773349,-0.073223,-0.112744,-0.072323,1,1
1836,46,-0.709018,-0.049620,-0.106447,-0.080092,1,1
1834,46,-0.740269,-0.104425,-0.071734,-0.131192,1,1
1824,46,-0.836985,-0.034110,-0.167811,-0.122209,1,1
1817,46,-0.747127,0.110176,-0.032925,0.044105,1,0
1815,46,-0.811349,-0.012590,0.030165,0.065473,1,1
1813,46,-0.750502,-0.080756,0.006043,0.108422,1,1
1818,46,-0.781743,0.080753,0.011275,-0.023789,1,1
1832,46,-0.747752,-0.032246,-0.119044,-0.138254,1,1
1809,46,-0.775326,-0.069083,-0.059412,-0.027753,1,1
1812,46,-0.752090,0.037009,-0.064298,0.041512,1,1
1810,46,-0.811305,0.023377,-0.016528,0.083333,1,1
1822,46,-0.775747,0.012876,-0.136180,-0.132300,1,1
1837,46,-0.745384,-0.059181,-0.174392,-0.193956,1,1
1803,46,-0.746492,-0.003735,0.014009,0.027370,1,1
1820,46,-0.769922,-0.119640,-0.128257,-0.097724,1,1
1805,46,-0.647293,0.105254,0.053724,0.051355,1,0
1814,46,-0.763810,0.038774,-0.056071,-0.168190,1,1
1801,46,-0.808665,0.088270,0.028276,-0.026683,1,0
1829,46,-0.670310,-0.064329,-0.132570,-0.158449,1,1
1835,46,-0.775450,0.019214,-0.132024,-0.123149,1,1
1823,46,-0.699838,-0.140328,-0.151026,-0.057319,1,1
1800,46,-0.758077,0.112333,-0.039293,0.099847,1,0
1830,46,-0.762487,-0.076106,-0.147746,-0.114846,1,1
1806,46,-0.784761,-0.012732,-0.025457,0.053345,1,1
1802,46,-0.763385,0.024604,-0.035628,0.029969,1,1
1831,46,-0.792099,0.074824,-0.152050,-0.087666,1,1
1804,46,-0.812204,-0.030663,0.005139,0.042738,1,1
1838,46,-0.830176,-0.041400,-0.106896,-0.131687,1,1
1872,47,-0.804706,-0.064148,-0.117833,-0.205217,1,1
1846,47,-0.750901,0.046882,0.011250,0.036485,1,1
1862,47,-0.795054,0.046754,-0.206731,-0.096944,1,1
1875,47,-0.806532,-0.010633,-0.229652,-0.147432,1,1
1859,47,-0.763771,0.005133,-0.042746,-0.033391,1,1
1867,47,-0.800727,-0.076152,-0.089867,-0.044393,1,1
1879,47,-0.767737,-0.000502,-0.056104,-0.088816,1,1
1851,47,-0.777567,-0.034229,0.026703,-0.023059,1,1
1866,47,-0.696603,-0.020059,-0.150550,-0.104346,1,1
1842,47,-0.720138,0.083140,0.018233,-0.068932,1,0
1864,47,-0.716935,-0.135393,-0.137065,-0.124982,1,1
1870,47,-0.807595,-0.061657,-0.117541,-0.111838,1,1
1873,47,-0.767137,-0.094984,-0.121540,-0.147557,1,1
1844,47,-0.778376,0.015716,-0.047492,-0.020476,1,1
1868,47,-0.804476,-0.085052,-0.180746,-0.151275,1,1
1841,47,-0.722397,0.023455,0.029877,-0.008281,1,1
1848,47,-0.825749,0.057652,0.080289,-0.015748,1,1
1852,47,-0.713835,-0.021228,-0.090812,-0.051702,1,1
1845,47,-0.847163,-0.084631,0.001415,0.074172,1,1
1877,47,-0.747250,-0.111702,-0.158187,-0.128998,1,1
1854,47,-0.703743,-0.027391,0.010088,0.033232,1,1
1850,47,-0.742234,-0.066580,-0.034884,0.037328,1,1
1857,47,-0.781836,-0.062143,-0.089084,0.053307,1,1
1855,47,-0.810873,0.066945,0.065679,0.039874,1,1
1860,47,-0.781881,-0.005483,-0.131552,-0.158217,1,1
1853,47,-0.747279,0.022067,-0.013420,0.044300,1,1
1861,47,-0.844307,-0.180216,-0.186170,-0.132726,0,1
1847,47,-0.679295,0.001899,-0.122090,0.012892,1,1
1874,47,-0.779738,-0.083465,-0.187071,-0.118584,1,1
1869,47,-0.771094,-0.042219,-0.155003,-0.176174,1,1
1865,47,-0.747342,-0.072577,-0.069664,-0.093558,1,1
1863,47,-0.775776,-0.069492,-0.139750,-0.129839,1,1
1843,47,-0.766190,0.128223,-0.038839,0.056941,1,0
1856,47,-0.757973,-0.053406,-0.019471,0.004210,1,1
1858,47,-0.715755,0.004416,0.000842,0.029826,1,1
1876,47,-0.796602,-0.039433,-0.157558,-0.061990,1,1
1840,47,-0.691583,-0.001214,-0.076329,-0.048106,1,1
1871,47,-0.807721,-0.025788,-0.148405,-0.164025,1,1
1878,47,-0.712436,-0.055138,-0.190474,-0.223589,1,1
1849,47,-0.852636,-0.036720,0.065610,0.039485,1,1
1894,48,-0.733837,0.129613,0.021774,-0.011105,1,0
1891,48,-0.731024,-0.001536,-0.047828,0.029559,1,1
1898,48,-0.785159,-0.048745,0.049341,0.045932,1,1
1905,48,-0.629346,-0.131491,-0.294734,-0.144111,0,1
1880,48,-0.745638,0.019866,0.035994,-0.003420,1,1
1903,48,-0.668845,0.014109,-0.098324,-0.178196,1,1
1913,48,-0.826536,-0.052472,-0.234787,-0.101456,1,1
1888,48,-0.777768,0.043786,-0.000367,0.044811,1,1
1906,48,-0.664802,0.003657,-0.213016,-0.144856,1,1
1895,48,-0.720776,0.013959,0.000478,0.001793,1,1
1916,48,-0.764432,-0.006223,-0.095640,-0.206147,1,1
1915,48,-0.706867,-0.138543,-0.180154,-0.139107,1,1
1919,48,-0.726191,0.001769,-0.166599,-0.058401,1,1
1911,48,-0.790738,-0.048560,-0.151127,-0.116660,1,1
1918,48,-0.734474,-0.121930,-0.178630,-0.109046,1,1
1893,48,-0.722754,-0.050306,0.024689,0.041723,1,1
1908,48,-0.768840,-0.042741,-0.160122,-0.063548,1,1
1904,48,-0.739111,-0.081732,-0.103515,-0.049834,1,1
1887,48,-0.675038,-0.073238,-0.027701,0.017095,1,1
1889,48,-0.680308,0.021519,-0.016105,0.069611,1,1
1902,48,-0.771521,0.009677,-0.133835,-0.133598,1,1
1917,48,-0.799479,-0.149745,-0.174485,-0.109814,0,1
1912,48,-0.822123,-0.027604,-0.232386,-0.013389,1,1
1900,48,-0.813222,-0.070718,-0.202859,-0.171855,1,1
1882,48,-0.763627,-0.065161,-0.030259,0.048895,1,1
1892,48,-0.649778,-0.033915,-0.060706,-0.043963,1,1
1886,48,-0.785586,0.024340,0.016105,0.010980,1,1
1890,48,-0.743482,-0.051823,-0.060131,-0.011880,1,1
1896,48,-0.681210,-0.056949,-0.105063,0.050696,1,1
1884,48,-0.674012,-0.098725,-0.042075,0.042294,1,1
1883,48,-0.792639,0.012615,-0.026331,0.016553,1,1
1899,48,-0.687428,0.059259,0.006121,0.028433,1,1
1910,48,-0.689674,-0.020769,-0.182202,-0.080635,1,1
1897,48,-0.761115,-0.121917,-0.099368,0.120449,1,1
1885,48,-0.810480,0.060549,0.039601,0.068397,1,1
1907,48,-0.854064,-0.091716,-0.091091,-0.052124,1,1
1909,48,-0.745410,-0.034351,-0.173438,-0.175266,1,1
1901,48,-0.796053,-0.025041,-0.203477,-0.118754,1,1
1914,48,-0.819305,-0.051573,-0.183955,-0.119447,1,1
1881,48,-0.748247,0.060907,-0.009201,0.057230,1,1
1948,49,-0.821275,-0.086477,-0.167618,-0.080112,1,1
1920,49,-0.761649,-0.072374,0.001041,0.020270,1,1
1931,49,-0.784351,0.047481,-0.041843,0.028006,1,1
1925,49,-0.749945,-0.065875,-0.020852,-0.082579,1,1
1952,49,-0.785479,-0.028063,-0.167978,-0.023185,1,1
1955,49,-0.678713,-0.128336,-0.173200,-0.098252,1,1
1935,49,-0.741608,0.006203,0.033508,-0.042870,1,1
1921,49,-0.779828,-0.054097,-0.016901,-0.016607,1,1
1932,49,-0.796898,0.019221,-0.143076,-0.052464,1,1
1951,49,-0.737205,-0.049074,-0.130678,-0.105562,1,1
1953,49,-0.738601,-0.006368,-0.096431,-0.117093,1,1
1926,49,-0.731344,0.026554,-0.051204,-0.115421,1,1
1928,49,-0.703492,-0.049956,-0.000475,0.106041,1,1
1929,49,-0.702753,0.056909,-0.082727,-0.002917,1,1
1936,49,-0.713626,-0.073212,0.009513,-0.032631,1,1
1939,49,-0.799807,-0.021640,-0.036169,0.006258,1,1
1934,49,-0.787543,0.001582,-0.045115,0.023609,1,1
1945,49,-0.705045,-0.161769,-0.139498,-0.184593,0,1
1940,49,-0.813760,-0.161445,-0.055934,-0.052208,0,1
1954,49,-0.651910,-0.125012,-0.218519,-0.112550,0,1
1947,49,-0.705260,-0.033864,-0.150118,-0.019255,1,1
1937,49,-0.747655,0.011826,0.039649,-0.092595,1,1
1943,49,-0.848262,-0.080311,-0.130370,-0.057321,1,1
1930,49,-0.752270,-0.010122,-0.043028,-0.023669,1,1
1958,49,-0.797218,-0.031110,-0.058939,-0.136775,1,1
1941,49,-0.860611,0.000701,-0.146083,-0.130264,1,1
1938,49,-0.795259,-0.027309,0.033926,0.009337,1,1
1922,49,-0.797047,0.067167,-0.062327,-0.036963,1,1
1946,49,-0.713726,-0.086484,-0.068394,-0.070111,1,1
1950,49,-0.694507,-0.069683,-0.165558,-0.066740,1,1
1923,49,-0.787012,-0.087294,0.030900,-0.030232,1,1
1927,49,-0.805776,-0.011231,-0.011494,-0.013970,1,1
1959,49,-0.770222,-0.051735,-0.174346,-0.088622,1,1
1944,49,-0.776721,-0.142623,-0.102632,-0.110791,1,1
1957,49,-0.842330,-0.053890,-0.090281,-0.128135,1,1
1949,49,-0.838977,-0.114085,-0.128611,-0.101584,1,1
1924,49,-0.717930,-0.110150,-0.056491,0.056686,1,1
1956,49,-0.782544,-0.080442,-0.090868,-0.099853,1,1
1933,49,-0.672408,-0.055770,0.049209,-0.054731,1,1
1942,49,-0.774945,-0.102938,-0.193323,-0.102394,1,1
1981,50,-0.740418,-0.076295,-0.205391,-0.127992,1,1
1972,50,-0.659127,0.029377,0.049014,-0.041950,1,1
1969,50,-0.717963,0.034900,0.063568,0.044388,1,1
1982,50,-0.753822,-0.030515,-0.137517,-0.182944,1,1
1995,50,-0.786269,-0.004500,-0.243665,-0.104595,1,1
1987,50,-0.793582,-0.040823,-0.191186,-0.212483,1,1
1977,50,-0.765183,0.094809,-0.019142,0.013233,1,0
1993,50,-0.673674,-0.039132,-0.150933,-0.162351,1,1
1983,50,-0.753681,-0.051347,-0.054781,-0.101738,1,1
1991,50,-0.758299,-0.096082,-0.068766,-0.133217,1,1
1964,50,-0.760551,-0.056479,0.007158,0.089938,1,1
1966,50,-0.706186,0.083703,-0.122499,-0.073976,1,0
1976,50,-0.756267,0.015003,0.053538,0.007379,1,1
1979,50,-0.716216,0.012675,-0.030540,0.009916,1,1
1986,50,-0.745095,-0.066539,-0.169910,-0.129737,1,1
1989,50,-0.762040,-0.143379,-0.085699,-0.149930,1,1
1965,50,-0.728317,-0.073749,-0.042485,-0.031835,1,1
1984,50,-0.747426,-0.022021,-0.155583,-0.034072,1,1
1997,50,-0.749110,-0.173903,-0.098830,-0.133180,0,1
1963,50,-0.711078,0.025932,0.046541,-0.026333,1,1
1968,50,-0.801755,-0.019129,-0.092647,-0.030129,1,1
1973,50,-0.752406,0.025185,0.022413,-0.093276,1,1
1975,50,-0.763818,-0.111705,-0.041071,0.020400,1,1
1978,50,-0.671670,0.114013,-0.035593,0.035885,1,0
1996,50,-0.699590,-0.114682,-0.102025,-0.168780,1,1
1988,50,-0.663656,-0.012894,-0.153177,-0.098691,1,1
1961,50,-0.730992,-0.083573,-0.102451,-0.046104,1,1
1994,50,-0.743042,-0.108619,-0.208186,-0.114061,1,1
1960,50,-0.692198,0.015096,-0.047146,0.024910,1,1
1999,50,-0.801194,-0.122926,-0.182847,-0.196778,1,1
1998,50,-0.790742,-0.087088,-0.208136,-0.147031,1,1
1970,50,-0.807916,0.026386,-0.063038,0.063785,1,1
1971,50,-0.629423,0.111774,0.022146,0.018086,1,0
1974,50,-0.774799,-0.039714,0.013971,0.042803,1,1
1985,50,-0.759155,-0.056511,-0.155718,-0.009968,1,1
1962,50,-0.714945,0.008612,-0.040145,-0.036704,1,1
1980,50,-0.771753,-0.080293,-0.216757,-0.140592,1,1
1992,50,-0.823956,-0.021793,-0.159624,-0.170993,1,1
1990,50,-0.836172,-0.085730,-0.173179,-0.189230,1,1
1967,50,-0.768860,-0.076659,-0.033396,-0.027634,1,1
2006,51,-0.788423,0.065160,-0.015015,0.046518,1,1
2004,51,-0.769716,0.075343,0.020631,-0.075291,1,1
2012,51,-0.827664,0.060843,0.009286,-0.020392,1,1
2003,51,-0.719629,-0.023814,-0.072380,-0.003065,1,1
2037,51,-0.747427,-0.026661,-0.115688,-0.115406,1,1
2019,51,-0.676235,0.001917,-0.077883,0.006470,1,1
2014,51,-0.807177,0.049303,-0.029170,0.117440,1,1
2029,51,-0.769502,-0.085047,-0.201148,-0.137782,1,1
2018,51,-0.774989,0.059138,0.062567,-0.080166,1,1
2022,51,-0.742424,-0.121854,-0.156045,-0.133790,1,1
2030,51,-0.774904,-0.089543,-0.143763,-0.171761,1,1
2008,51,-0.742689,-0.035835,0.013145,0.117747,1,1
2011,51,-0.743030,0.028875,-0.003524,-0.051084,1,1
2026,51,-0.833769,-0.103749,-0.097474,-0.071190,1,1
2002,51,-0.823936,-0.035719,0.057527,0.064773,1,1
2020,51,-0.703547,-0.083289,-0.157784,-0.087835,1,1
2010,51,-0.706511,-0.030482,0.013485,-0.008251,1,1
2016,51,-0.714496,-0.083540,-0.017301,-0.023466,1,1
2034,51,-0.721954,-0.087053,-0.141621,-0.261530,1,1
2038,51,-0.621252,-0.111372,-0.185298,-0.077597,0,1
2017,51,-0.711038,-0.033178,-0.056839,0.003170,1,1
2013,51,-0.748514,-0.057341,-0.062569,-0.042778,1,1
2015,51,-0.735992,-0.046976,-0.044174,0.078780,1,1
2024,51,-0.771727,-0.116146,-0.089548,-0.155744,1,1
2031,51,-0.727065,-0.088867,-0.167355,-0.126314,1,1
2009,51,-0.777145,-0.005654,0.024624,0.039208,1,1
2033,51,-0.788869,-0.037984,-0.049045,-0.114362,1,1
2032,51,-0.791755,-0.098815,-0.133844,-0.166156,1,1
2000,51,-0.738265,-0.018569,-0.004884,-0.030373,1,1
2039,51,-0.713704,0.005436,-0.134361,-0.009535,1,1
2036,51,-0.783178,-0.104284,-0.105884,-0.123024,1,1
2035,51,-0.762301,0.061976,-0.191203,-0.086002,1,1
2025,51,-0.822446,-0.091750,-0.085972,-0.146773,1,1
2023,51,-0.752640,0.061093,-0.191869,-0.090633,1,1
2007,51,-0.721067,-0.026390,-0.020129,0.034103,1,1
2028,51,-0.760459,-0.044910,-0.084843,-0.196461,1,1
2005,51,-0.707897,0.053342,-0.070790,-0.038407,1,1
2027,51,-0.734248,-0.011512,-0.165529,-0.078880,1,1
2021,51,-0.733214,-0.079427,-0.133359,-0.012357,1,1
2001,51,-0.787392,0.020628,0.016056,0.120722,1,1
2079,52,-0.826547,-0.102312,-0.122682,-0.074442,1,1
2066,52,-0.737981,-0.076877,-0.165208,-0.115627,1,1
2060,52,-0.802077,0.038151,-0.089881,-0.088580,1,1
2057,52,-0.731993,-0.069142,0.001201,0.023386,1,1
2068,52,-0.727892,-0.059366,-0.163518,-0.095775,1,1
2078,52,-0.753440,-0.035668,-0.155229,-0.233643,1,1
2044,52,-0.669271,-0.062669,-0.057943,0.066758,1,1
2074,52,-0.704649,-0.072922,-0.012018,-0.128113,1,1
2047,52,-0.780450,0.081174,0.057679,-0.034852,1,1
2077,52,-0.788007,0.025288,-0.153935,-0.106423,1,1
2043,52,-0.692261,-0.036821,0.051208,0.001142,1,1
2061,52,-0.813913,-0.048975,-0.263537,-0.161691,1,1
2058,52,-0.718215,-0.053970,-0.125011,-0.034603,1,1
2064,52,-0.683973,-0.071011,-0.183004,-0.160845,1,1
2076,52,-0.760633,-0.087893,-0.218081,0.041545,1,1
2067,52,-0.778578,-0.013726,-0.223479,-0.170124,1,1
2050,52,-0.689303,-0.012416,-0.040108,0.081852,1,1
2046,52,-0.772904,0.018724,0.002012,0.078531,1,1
2071,52,-0.692078,-0.135379,-0.132657,-0.080032,1,1
2069,52,-0.718497,-0.036847,-0.119339,-0.045158,1,1
2073,52,-0.795175,-0.023888,-0.163147,-0.067431,1,1
2042,52,-0.813086,-0.005970,0.061934,0.011051,1,1
2065,52,-0.826452,-0.139090,-0.156425,-0.206445,0,1
2049,52,-0.717986,0.012502,-0.023303,-0.000876,1,1
2054,52,-0.780669,0.019917,-0.065670,0.099011,1,1
2062,52,-0.717237,-0.139405,-0.126940,-0.198370,1,1
2051,52,-0.746030,0.096032,-0.033799,-0.025120,1,0
2052,52,-0.755727,0.059345,0.017311,0.075839,1,1
2045,52,-0.775445,0.112005,-0.008060,0.034393,1,0
2059,52,-0.740294,-0.034188,0.043672,-0.023025,1,1
2053,52,-0.717484,-0.016529,-0.048509,0.003613,1,1
2055,52,-0.716355,-0.023367,0.003800,0.084735,1,1
2063,52,-0.744251,-0.052370,-0.171172,-0.155656,1,1
2070,52,-0.760093,0.030964,-0.118220,-0.109335,1,1
2040,52,-0.681759,0.026465,-0.048083,0.021236,1,1
2056,52,-0.739744,0.095871,-0.058891,-0.020722,1,0
2041,52,-0.706158,-0.037762,0.029790,-0.089284,1,1
2075,52,-0.741863,-0.039726,-0.159760,-0.191599,1,1
2048,52,-0.805969,-0.060067,0.011467,-0.052145,1,1
2072,52,-0.817964,-0.069508,-0.120367,-0.114712,1,1
2109,53,-0.840269,0.028021,-0.225198,0.118404,1,1
2095,53,-0.657421,-0.040350,-0.134745,0.150099,1,1
2082,53,-0.635108,0.003563,0.055666,0.061398,1,1
2116,53,-0.743161,-0.133359,-0.216775,0.034929,1,1
2101,53,-0.659809,-0.008784,-0.186957,0.039692,1,1
2099,53,-0.817314,0.048227,-0.207292,0.078948,1,1
2106,53,-0.787424,-0.048924,-0.236323,0.091000,1,1
2105,53,-0.730129,0.017882,-0.192550,0.026524,1,1
2119,53,-0.725951,-0.061500,-0.156979,0.037386,1,1
2089,53,-0.826426,-0.038646,-0.141873,0.071100,1,1
2100,53,-0.848567,-0.043358,-0.176049,0.006093,1,1
2115,53,-0.735438,-0.114311,-0.190920,0.067665,1,1
2092,53,-0.726557,0.055093,-0.203302,0.146313,1,1
2084,53,-0.776152,-0.045851,-0.282486,0.187606,1,1
2118,53,-0.702169,-0.104547,-0.146199,0.130735,1,1
2088,53,-0.714555,0.007816,-0.083090,0.027501,1,1
2081,53,-0.777526,-0.032623,-0.206535,0.104304,1,1
2083,53,-0.783506,-0.055512,-0.107071,0.086935,1,1
2085,53,-0.695047,-0.043129,-0.020705,0.085296,1,1
2104,53,-0.803444,0.037993,-0.192204,0.032195,1,1
2107,53,-0.720233,-0.105695,-0.276969,0.016568,1,1
2093,53,-0.745610,-0.006022,-0.068902,-0.019471,1,1
2110,53,-0.811144,-0.182868,-0.200444,0.008607,0,1
2094,53,-0.755770,0.018860,-0.189763,0.182082,1,1
2102,53,-0.590523,-0.030517,-0.301615,0.027493,0,1
2108,53,-0.734265,-0.022262,-0.222763,0.019510,1,1
2091,53,-0.861528,-0.074124,-0.085247,0.167529,1,1
2096,53,-0.695891,0.031172,-0.200852,0.161953,1,1
2097,53,-0.755610,0.023823,-0.232067,0.055095,1,1
2103,53,-0.834664,-0.061960,-0.204071,0.062025,1,1
2111,53,-0.762057,-0.133249,-0.262882,0.094580,1,1
2087,53,-0.727877,-0.020926,-0.199561,0.043211,1,1
2090,53,-0.682645,-0.015861,-0.186729,0.078689,1,1
2117,53,-0.738841,-0.010749,-0.166725,0.082795,1,1
2098,53,-0.766461,-0.056977,-0.179370,0.122678,1,1
2086,53,-0.708929,-0.017375,-0.245644,0.100442,1,1
2112,53,-0.777046,-0.025634,-0.229453,0.012834,1,1
2113,53,-0.730564,-0.155228,-0.215029,0.148300,0,1
2080,53,-0.676184,0.040732,-0.205682,0.092009,1,1
2114,53,-0.796788,-0.032486,-0.188786,0.067930,1,1
2138,54,-0.736631,0.010322,-0.098199,0.249743,1,1
2150,54,-0.773147,-0.004967,-0.200462,0.129277,1,1
2135,54,-0.746767,0.049583,-0.055498,0.115057,1,1
2120,54,-0.732411,0.025612,-0.169901,0.079326,1,1
2127,54,-0.747312,-0.027429,-0.180817,0.105832,1,1
2141,54,-0.764744,-0.154536,-0.280370,0.042618,0,1
2144,54,-0.826225,0.000088,-0.253681,-0.011988,1,1
2136,54,-0.776623,0.036469,-0.155942,0.061545,1,1
2153,54,-0.707393,-0.075137,-0.179938,0.058712,1,1
2159,54,-0.790024,-0.101120,-0.242070,0.036013,1,1
2146,54,-0.727024,-0.058947,-0.232557,0.058932,1,1
2152,54,-0.768150,-0.066162,-0.232911,0.121347,1,1
2156,54,-0.762914,-0.125847,-0.203353,0.025995,1,1
2123,54,-0.759243,-0.014784,-0.128298,0.096969,1,1
2137,54,-0.688297,0.016373,-0.048795,0.064592,1,1
2122,54,-0.789911,0.008413,-0.103466,0.065105,1,1
2128,54,-0.686428,0.001813,-0.262178,0.045263,1,1
2126,54,-0.703039,-0.036160,-0.139064,0.033554,1,1
2130,54,-0.778980,0.052117,-0.202593,0.118600,1,1
2151,54,-0.755151,-0.026730,-0.141842,0.009982,1,1
2158,54,-0.794942,-0.065366,-0.220046,0.095817,1,1
2143,54,-0.687401,-0.049338,-0.168630,0.097123,1,1
2154,54,-0.798906,-0.035606,-0.222793,0.023517,1,1
2134,54,-0.770629,-0.038294,-0.267070,0.092783,1,1
2121,54,-0.772086,0.002311,-0.078780,0.126781,1,1
2145,54,-0.755867,-0.048954,-0.270840,0.080371,1,1
2131,54,-0.703850,-0.080521,-0.097215,0.138106,1,1
2155,54,-0.763015,-0.014527,-0.307019,-0.005299,1,1
2149,54,-0.828295,-0.203019,-0.194447,-0.037742,0,1
2157,54,-0.662590,-0.082987,-0.248672,0.018378,1,1
2124,54,-0.607146,0.021278,-0.093485,0.131228,1,0
2147,54,-0.798271,0.013880,-0.218588,0.104536,1,1
2132,54,-0.713386,0.032677,-0.093530,0.104812,1,1
2133,54,-0.797073,0.025446,-0.189694,0.061869,1,1
2142,54,-0.717647,0.005497,-0.230970,0.024227,1,1
2140,54,-0.781194,-0.112652,-0.177656,0.051374,1,1
2129,54,-0.681384,-0.025693,-0.116847,0.180414,1,1
2148,54,-0.654187,-0.028718,-0.254178,0.048784,1,1
2125,54,-0.676985,0.033709,-0.172820,0.050114,1,1
2139,54,-0.797087,-0.058604,-0.186167,0.052133,1,1
2188,55,-0.773508,-0.101062,-0.196260,0.155433,1,1
2186,55,-0.771938,-0.100624,-0.204814,0.039078,1,1
2193,55,-0.833022,-0.001758,-0.229267,0.097337,1,1
2198,55,-0.799142,0.010726,-0.320075,-0.030932,1,1
2199,55,-0.796899,-0.120598,-0.153263,0.097532,1,1
2174,55,-0.844250,-0.001902,-0.205757,0.090512,1,1
2187,55,-0.741897,-0.126962,-0.195449,0.011883,1,1
2166,55,-0.733343,0.021396,-0.201707,0.144304,1,1
2178,55,-0.675711,0.018898,-0.193489,0.144830,1,1
2176,55,-0.619566,0.002256,-0.110914,0.122542,1,1
2182,55,-0.821580,-0.066402,-0.294079,0.105475,1,1
2173,55,-0.634454,0.085603,-0.118892,0.066714,1,0
2163,55,-0.771108,0.013303,-0.141215,-0.004168,1,1
2195,55,-0.743311,0.032607,-0.201315,0.018447,1,1
2180,55,-0.734685,0.009980,-0.167145,0.007582,1,1
2160,55,-0.795261,-0.050168,-0.076421,0.099249,1,1
2179,55,-0.687471,0.008082,-0.143302,0.063874,1,1
2177,55,-0.781869,0.022946,-0.130934,0.132347,1,1
2161,55,-0.766406,0.020269,-0.109868,0.032275,1,1
2196,55,-0.745954,0.003431,-0.232647,0.093577,1,1
2164,55,-0.729561,0.011714,-0.232756,0.053971,1,1
2183,55,-0.684390,-0.041011,-0.242057,0.054581,1,1
2197,55,-0.765199,-0.132608,-0.208081,0.095903,1,1
2184,55,-0.808233,-0.037626,-0.302159,0.191747,1,1
2189,55,-0.785343,-0.037352,-0.189456,0.007169,1,1
2171,55,-0.685280,-0.004732,-0.156881,-0.036152,1,1
2162,55,-0.766069,-0.034800,-0.208255,0.099868,1,1
2169,55,-0.666716,-0.080244,-0.144805,0.106272,1,1
2181,55,-0.866193,-0.090487,-0.228228,0.059580,0,1
2191,55,-0.774096,-0.023630,-0.174894,0.131710,1,1
2172,55,-0.682698,-0.089237,-0.082558,0.050611,1,1
2165,55,-0.729314,-0.064525,-0.114919,0.105635,1,1
2170,55,-0.706991,-0.097716,-0.110359,0.054163,1,1
2190,55,-0.735929,-0.057809,-0.143936,0.069004,1,1
2167,55,-0.753754,0.038124,-0.117023,-0.003735,1,1
2175,55,-0.728557,-0.039246,-0.170197,0.147800,1,1
2168,55,-0.716865,-0.059282,-0.123434,0.063861,1,1
2192,55,-0.664313,-0.034729,-0.150232,0.056525,1,1
2185,55,-0.751921,-0.048637,-0.161262,0.061680,1,1
2194,55,-0.769546,-0.091179,-0.247379,0.001156,1,1
2210,56,-0.721798,-0.061385,-0.130482,0.079469,1,1
2220,56,-0.735590,-0.065756,-0.287846,0.003586,1,1
2224,56,-0.735998,-0.054289,-0.119577,0.066984,1,1
2208,56,-0.728681,0.075356,-0.117484,0.033581,1,1
2238,56,-0.821204,-0.055348,-0.230353,-0.003759,1,1
2237,56,-0.724996,-0.091040,-0.220498,-0.033843,1,1
2227,56,-0.728537,-0.025819,-0.245190,0.128390,1,1
2222,56,-0.760939,0.004592,-0.138498,0.092290,1,1
2211,56,-0.749440,0.009637,-0.131301,0.080248,1,1
2225,56,-0.726240,-0.087501,-0.300738,0.036691,1,1
2218,56,-0.705466,0.064220,-0.099946,0.064223,1,1
2203,56,-0.665491,0.042850,-0.140574,0.102247,1,1
2239,56,-0.720734,0.003419,-0.220959,0.065199,1,1
2204,56,-0.639571,-0.004226,-0.194874,0.039729,1,1
2233,56,-0.754672,-0.042116,-0.156489,0.039979,1,1
2219,56,-0.769917,-0.071763,-0.112326,0.102693,1,1
2235,56,-0.753622,-0.090377,-0.272324,0.067406,1,1
2209,56,-0.716967,0.018346,-0.152002,0.186060,1,1
2217,56,-0.692919,0.074224,-0.148117,0.035114,1,1
2201,56,-0.667719,-0.045897,-0.160041,0.150582,1,1
2215,56,-0.694090,-0.009328,-0.196893,0.054953,1,1
2205,56,-0.754967,-0.083949,-0.027653,0.163610,1,1
2236,56,-0.757376,-0.049737,-0.158046,0.093629,1,1
2234,56,-0.777928,0.011218,-0.209952,0.139027,1,1
2232,56,-0.755098,-0.146031,-0.261426,0.097307,1,1
2228,56,-0.807380,-0.069991,-0.204326,0.158228,1,1
2221,56,-0.718610,-0.024244,-0.294611,0.105502,1,1
2229,56,-0.799353,-0.142056,-0.251313,0.071267,0,1
2202,56,-0.750330,0.003944,-0.071165,0.106386,1,1
2216,56,-0.719106,-0.021945,-0.085935,0.030706,1,1
2207,56,-0.701640,-0.055568,-0.144695,0.122222,1,1
2200,56,-0.708740,0.068272,-0.200402,0.148169,1,1
2206,56,-0.821637,0.011314,-0.089968,0.068980,1,1
2212,56,-0.755985,0.018176,-0.189867,0.100734,1,1
2223,56,-0.699089,-0.049825,-0.255653,0.018046,1,1
2214,56,-0.754292,0.120920,-0.153311,0.074224,1,0
2226,56,-0.745865,-0.070666,-0.187671,0.041012,1,1
2230,56,-0.741158,0.022405,-0.256786,0.019281,1,1
2231,56,-0.833283,-0.062176,-0.151014,0.026772,1,1
2213,56,-0.715171,0.064344,-0.125179,0.000237,1,1
2246,57,-0.751881,0.010716,-0.142415,0.066765,1,1
2277,57,-0.674146,-0.048612,-0.310086,-0.003430,1,1
2270,57,-0.777059,-0.096971,-0.176374,0.080298,1,1
2249,57,-0.719587,-0.098482,-0.195848,0.068828,1,1
2269,57,-0.694700,-0.008289,-0.212543,0.038949,1,1
2250,57,-0.678724,-0.002317,-0.089230,0.064046,1,1
2255,57,-0.742739,0.049648,-0.132064,0.114091,1,1
2241,57,-0.796099,0.005783,-0.146298,0.159461,1,1
2278,57,-0.737341,-0.081085,-0.188540,0.089742,1,1
2260,57,-0.721056,-0.030314,-0.178371,0.153606,1,1
2274,57,-0.700601,-0.008008,-0.313483,0.102320,1,1
2251,57,-0.733524,0.061611,-0.169384,0.079987,1,1
2266,57,-0.722040,0.096972,-0.201341,0.015256,1,1
2271,57,-0.884724,-0.126593,-0.298102,0.078972,0,1
2253,57,-0.728109,-0.102800,-0.219680,0.013848,1,1
2264,57,-0.730202,-0.103827,-0.222252,0.079867,1,1
2262,57,-0.758953,-0.058295,-0.219834,0.083871,1,1
2243,57,-0.704839,0.051002,-0.133972,0.108546,1,1
2258,57,-0.745527,-0.069058,-0.134613,0.125383,1,1
2259,57,-0.728539,0.014612,-0.132970,0.052897,1,1
2273,57,-0.764215,-0.004717,-0.222868,0.116164,1,1
2242,57,-0.684787,-0.021591,-0.080786,0.119307,1,1
2272,57,-0.748740,-0.006927,-0.295327,0.095533,1,1
2240,57,-0.711411,0.010262,-0.156467,0.115517,1,1
2265,57,-0.761685,-0.145403,-0.253799,0.113898,1,1
2275,57,-0.809068,-0.040866,-0.206160,0.020889,1,1
2244,57,-0.721747,-0.035843,-0.189189,0.036356,1,1
2268,57,-0.727764,0.065249,-0.298048,0.081162,1,1
2261,57,-0.766051,-0.064368,-0.286843,0.106921,1,1
2252,57,-0.760920,0.021236,-0.127883,0.107186,1,1
2276,57,-0.825378,-0.048646,-0.243334,0.099196,1,1
2245,57,-0.744448,0.031800,-0.121045,-0.027481,1,1
2247,57,-0.759292,0.002647,-0.077968,0.013381,1,1
2254,57,-0.727067,0.031351,-0.143556,0.201101,1,1
2279,57,-0.682075,-0.100094,-0.248832,0.087019,1,1
2263,57,-0.762921,-0.038701,-0.172063,0.018773,1,1
2257,57,-0.696766,-0.052241,-0.141831,0.075450,1,1
2267,57,-0.672927,-0.123588,-0.289011,0.103165,1,1
2248,57,-0.681271,0.020779,-0.159997,0.164794,1,1
2256,57,-0.764554,0.076213,-0.125372,0.047840,1,1
2310,58,-0.783561,-0.084735,-0.154862,0.070727,1,1
2309,58,-0.757801,-0.120774,-0.244844,0.053005,1,1
2312,58,-0.808879,0.009280,-0.205542,0.003439,1,1
2295,58,-0.792794,-0.028623,-0.174870,0.070470,1,1
2304,58,-0.726688,-0.078562,-0.202045,0.040113,1,1
2282,58,-0.726789,0.026844,-0.186292,-0.047281,1,1
2288,58,-0.768439,0.046420,-0.147076,0.138910,1,1
2300,58,-0.747946,-0.094289,-0.229888,0.052522,1,1
2319,58,-0.789733,-0.063653,-0.219678,0.059300,1,1
2316,58,-0.775332,-0.090337,-0.174561,0.024889,1,1
2314,58,-0.725756,-0.080997,-0.292479,0.016043,1,1
2313,58,-0.702928,0.010768,-0.184472,0.051921,1,1
2303,58,-0.640818,-0.015028,-0.221236,0.055365,1,1
2296,58,-0.808733,0.083742,-0.141427,0.104425,1,0
2297,58,-0.721457,-0.056066,-0.168377,0.026170,1,1
2306,58,-0.721357,0.043969,-0.261053,-0.020871,1,1
2280,58,-0.667355,0.046493,-0.279424,0.006028,1,1
2292,58,-0.827961,0.063695,-0.149342,0.120275,1,1
2311,58,-0.786056,-0.036400,-0.253192,0.048751,1,1
2318,58,-0.724606,-0.080982,-0.250150,0.039888,1,1
2305,58,-0.726862,-0.082012,-0.251779,0.027812,1,1
2302,58,-0.790621,0.014086,-0.261945,0.117339,1,1
2286,58,-0.657245,-0.042690,-0.158701,0.177494,1,1
2287,58,-0.688079,-0.017712,-0.233468,0.029710,1,1
2299,58,-0.637932,0.016583,-0.059177,0.050765,1,1
2307,58,-0.699595,-0.091470,-0.204696,0.031180,1,1
2308,58,-0.719190,-0.098462,-0.300135,0.055456,1,1
2290,58,-0.799006,0.032290,-0.132633,0.136346,1,1
2283,58,-0.756489,-0.046954,-0.076962,0.159757,1,1
2294,58,-0.725738,0.080961,-0.063450,0.032537,1,1
2284,58,-0.717447,-0.027920,-0.187600,0.149834,1,1
2301,58,-0.727207,-0.040019,-0.238156,0.011022,1,1
2285,58,-0.768947,-0.025138,-0.164007,0.040110,1,1
2289,58,-0.746498,-0.049448,-0.104638,0.161414,1,1
2293,58,-0.732777,-0.035176,-0.231384,0.137280,1,1
2298,58,-0.732826,0.019913,-0.179686,0.082135,1,1
2317,58,-0.812020,-0.106044,-0.163041,0.031702,1,1
2281,58,-0.736418,0.025703,-0.135473,0.015999,1,1
2291,58,-0.605517,0.027737,-0.231865,0.031866,1,0
2315,58,-0.693570,-0.064977,-0.235355,0.040708,1,1
2324,59,-0.747425,0.036065,-0.098556,0.179432,1,1
2348,59,-0.715772,-0.046939,-0.254601,0.003706,1,1
2320,59,-0.792459,0.054405,-0.144886,0.043876,1,1
2345,59,-0.781331,-0.024131,-0.243015,0.049368,1,1
2343,59,-0.743835,-0.030821,-0.135237,0.099670,1,1
2355,59,-0.772847,0.043813,-0.244256,0.114400,1,1
2322,59,-0.750565,-0.011167,-0.214503,0.078976,1,1
2353,59,-0.719213,-0.056044,-0.149969,0.052211,1,1
2358,59,-0.722560,-0.125272,-0.249839,0.112672,1,1
2350,59,-0.810821,-0.020018,-0.253660,0.089530,1,1
2327,59,-0.744372,-0.006523,-0.148515,-0.007914,1,1
2346,59,-0.736014,-0.117352,-0.227394,-0.052674,1,1
2351,59,-0.677806,-0.005913,-0.216030,0.140303,1,1
2349,59,-0.743633,-0.072970,-0.191790,0.019957,1,1
2340,59,-0.761515,-0.053765,-0.176955,0.141467,1,1
2332,59,-0.720735,-0.030601,-0.147756,0.039554,1,1
2342,59,-0.788157,-0.044114,-0.251435,0.084901,1,1
2359,59,-0.741159,-0.056500,-0.168810,0.086263,1,1
2339,59,-0.686531,0.011443,-0.135123,0.105515,1,1
2333,59,-0.771031,-0.011290,-0.207904,0.015139,1,1
2341,59,-0.837657,-0.065835,-0.226460,0.094913,1,1
2330,59,-0.705126,0.024098,-0.160108,0.105402,1,1
2354,59,-0.715668,-0.098317,-0.286711,0.124248,1,1
2344,59,-0.742018,-0.033214,-0.312922,0.135429,1,1
2325,59,-0.751418,0.018513,-0.124271,0.015249,1,1
2326,59,-0.684858,-0.047137,-0.129138,0.033623,1,1
2352,59,-0.761159,-0.095510,-0.167150,-0.038014,1,1
2334,59,-0.667690,-0.017016,-0.104745,0.167487,1,1
2356,59,-0.759877,0.014462,-0.243297,-0.007590,1,1
2321,59,-0.715857,-0.087683,-0.102061,0.087241,1,1
2331,59,-0.612916,-0.038763,-0.152914,0.035131,1,1
2335,59,-0.768061,-0.012568,-0.190757,0.151810,1,1
2336,59,-0.728149,0.001874,-0.189338,0.055954,1,1
2347,59,-0.713670,-0.137226,-0.249993,-0.010406,1,1
2323,59,-0.752626,-0.021035,-0.224709,0.104301,1,1
2357,59,-0.732088,-0.082394,-0.191060,0.021138,1,1
2338,59,-0.711182,-0.010678,-0.211298,0.013142,1,1
2329,59,-0.656021,0.026236,-0.073059,0.164774,1,1
2337,59,-0.725044,-0.059598,-0.183494,0.080909,1,1
2328,59,-0.701068,-0.011183,-0.126458,0.084393,1,1
2392,60,-0.734378,-0.032878,-0.348587,0.057157,1,1
2364,60,-0.709499,0.002103,-0.156131,0.136503,1,1
2391,60,-0.760895,0.044541,-0.187226,0.136330,1,1
2361,60,-0.736467,-0.056737,-0.083769,0.216287,1,1
2388,60,-0.806672,-0.142852,-0.357236,-0.005249,0,1
2385,60,-0.796865,0.001651,-0.186182,0.062617,1,1
2365,60,-0.745906,0.073149,-0.182691,0.123090,1,1
2378,60,-0.649645,-0.083475,-0.133489,0.094525,1,1
2370,60,-0.686369,-0.053124,-0.215171,0.074027,1,1
2367,60,-0.881505,-0.005701,-0.169943,-0.001485,1,1
2393,60,-0.771296,-0.018123,-0.263742,0.035337,1,1
2374,60,-0.732757,-0.034798,-0.099787,0.016669,1,1
2363,60,-0.687287,0.004532,-0.180873,0.098157,1,1
2384,60,-0.863962,-0.041808,-0.255100,-0.030248,1,1
2376,60,-0.688930,-0.000210,-0.144050,0.175810,1,1
2369,60,-0.817806,0.090614,-0.094517,0.050694,1,0
2371,60,-0.685652,0.042991,-0.158621,0.121058,1,1
2383,60,-0.764933,-0.085898,-0.229002,0.086691,1,1
2382,60,-0.790612,-0.047085,-0.274376,0.005965,1,1
2399,60,-0.817246,-0.016224,-0.262214,0.147210,1,1
2394,60,-0.681912,-0.045604,-0.209265,0.174397,1,1
2362,60,-0.716629,0.044830,-0.070415,0.071107,1,1
2360,60,-0.755196,-0.037412,-0.092077,0.171268,1,1
2398,60,-0.645647,-0.020107,-0.154924,0.035748,1,1
2366,60,-0.799467,0.074653,-0.192405,0.028649,1,1
2397,60,-0.725417,-0.018161,-0.241775,0.008159,1,1
2368,60,-0.828948,0.023785,-0.005398,0.072742,1,1
2380,60,-0.816213,-0.030167,-0.221339,0.051372,1,1
2396,60,-0.897500,-0.072707,-0.240189,-0.013357,0,1
2395,60,-0.792208,-0.056367,-0.231790,0.142165,1,1
2372,60,-0.642250,0.082083,-0.231638,0.142516,1,0
2389,60,-0.776140,-0.140360,-0.296882,0.051430,1,1
2381,60,-0.726162,-0.083912,-0.133502,0.074972,1,1
2373,60,-0.778157,-0.009443,-0.187518,0.061069,1,1
2387,60,-0.790937,-0.123913,-0.248143,0.138649,1,1
2390,60,-0.703774,-0.123292,-0.343887,0.040154,1,1
2375,60,-0.753122,-0.007025,-0.023743,0.094364,1,1
2379,60,-0.713631,0.027793,-0.191384,0.077652,1,1
2386,60,-0.658995,-0.020436,-0.121039,0.052959,1,1
2377,60,-0.694478,-0.019393,-0.149932,0.128457,1,1
2409,61,-0.700570,0.002731,-0.153113,0.071845,1,1
2401,61,-0.679735,0.071898,-0.183366,0.159102,1,1
2413,61,-0.743391,0.061812,-0.118989,0.009234,1,1
2404,61,-0.712562,-0.000856,-0.017454,0.070243,1,1
2428,61,-0.722579,-0.143964,-0.279983,0.099679,1,1
2421,61,-0.734150,-0.081789,-0.284373,0.214255,1,1
2422,61,-0.726202,-0.069739,-0.253699,0.066008,1,1
2402,61,-0.788219,0.028031,-0.122842,0.121400,1,1
2431,61,-0.802745,0.038421,-0.190537,0.082799,1,1
2420,61,-0.731553,-0.052694,-0.245470,-0.052568,1,1
2429,61,-0.685228,-0.119768,-0.302568,-0.024801,1,1
2439,61,-0.750234,-0.130254,-0.335028,0.120011,1,1
2427,61,-0.758041,-0.046942,-0.208282,0.061830,1,1
2437,61,-0.749273,-0.007178,-0.261235,0.095007,1,1
2435,61,-0.831120,-0.062795,-0.235603,0.098226,1,1
2400,61,-0.698534,-0.155812,-0.200343,-0.016368,1,1
2408,61,-0.706733,-0.037720,-0.170333,0.101069,1,1
2412,61,-0.728717,-0.043709,-0.145463,0.148700,1,1
2417,61,-0.694632,-0.070450,-0.181191,0.057602,1,1
2436,61,-0.783145,-0.185379,-0.226255,-0.080390,0,1
2438,61,-0.704695,-0.047679,-0.283399,0.000923,1,1
2425,61,-0.734137,-0.052902,-0.311721,0.016656,1,1
2432,61,-0.750415,-0.109835,-0.203917,-0.029703,1,1
2410,61,-0.695351,-0.047451,-0.179548,0.096392,1,1
2434,61,-0.766973,-0.142604,-0.225424,0.057943,1,1
2419,61,-0.819699,0.004390,-0.057700,0.047107,1,1
2426,61,-0.753859,-0.074924,-0.207966,0.041863,1,1
2424,61,-0.686822,-0.057680,-0.204638,0.043775,1,1
2407,61,-0.699618,-0.029039,-0.121117,0.171274,1,1
2405,61,-0.705020,0.014352,-0.102722,0.090657,1,1
2430,61,-0.702578,-0.153748,-0.245342,-0.104026,0,1
2411,61,-0.751955,-0.040479,-0.088685,0.079757,1,1
2423,61,-0.715179,-0.054034,-0.214098,0.127723,1,1
2416,61,-0.735867,-0.078004,-0.166246,0.121933,1,1
2406,61,-0.719858,0.038860,-0.106205,0.095815,1,1
2403,61,-0.642203,-0.087193,-0.115445,0.025091,1,1
2418,61,-0.745366,-0.001621,-0.108383,0.044070,1,1
2433,61,-0.701158,0.051209,-0.276687,0.028306,1,1
2415,61,-0.737239,-0.057464,-0.099716,0.051632,1,1
2414,61,-0.791374,0.027724,-0.176318,0.083019,1,1
2459,62,-0.745750,-0.006798,-0.188467,0.103224,1,1
2453,62,-0.746024,-0.021897,-0.125810,0.147231,1,1
2452,62,-0.751985,0.037989,-0.140133,0.106834,1,1
2475,62,-0.736779,-0.042739,-0.219718,0.080372,1,1
2456,62,-0.784596,-0.005507,-0.121824,0.030169,1,1
2444,62,-0.752860,-0.037598,-0.109823,0.140038,1,1
2463,62,-0.671355,-0.028423,-0.203946,-0.040581,1,1
2468,62,-0.702143,-0.076716,-0.228701,0.103834,1,1
2462,62,-0.768820,-0.066858,-0.201939,0.018317,1,1
2472,62,-0.817560,0.016783,-0.144272,0.083591,1,1
2461,62,-0.662143,-0.030163,-0.178942,0.078198,1,1
2443,62,-0.747367,0.012153,-0.038838,-0.011749,1,1
2479,62,-0.725953,-0.045051,-0.205679,0.023242,1,1
2446,62,-0.689312,0.003839,-0.076839,0.096487,1,1
2470,62,-0.735435,-0.068163,-0.267286,0.109701,1,1
2469,62,-0.707342,-0.019799,-0.111874,0.050640,1,1
2441,62,-0.751723,0.096699,-0.119422,-0.004609,1,0
2442,62,-0.779599,-0.047030,-0.129588,0.062614,1,1
2467,62,-0.719196,-0.099540,-0.227852,0.163152,1,1
2474,62,-0.751191,-0.006768,-0.226497,0.015791,1,1
2440,62,-0.691667,-0.036256,-0.156213,0.085676,1,1
2460,62,-0.674414,-0.085006,-0.150864,0.178939,1,1
2455,62,-0.639399,0.070168,-0.104066,-0.001377,1,0
2465,62,-0.636566,-0.058701,-0.282500,0.034321,1,1
2445,62,-0.711753,0.039736,-0.105349,0.053157,1,1
2449,62,-0.711043,0.061323,-0.147523,-0.038263,1,1
2477,62,-0.768475,-0.085575,-0.210290,0.153270,1,1
2471,62,-0.758406,-0.136565,-0.223079,0.101246,1,1
2458,62,-0.730977,0.056362,-0.151130,0.033898,1,1
2464,62,-0.814955,-0.094699,-0.139790,0.069126,1,1
2476,62,-0.819847,0.047341,-0.313739,-0.003947,1,1
2473,62,-0.750577,-0.054533,-0.192416,0.211602,1,1
2451,62,-0.713319,-0.037324,-0.212008,0.071005,1,1
2478,62,-0.815600,-0.023709,-0.204168,0.097978,1,1
2466,62,-0.814340,-0.087974,-0.294119,0.040427,1,1
2450,62,-0.745678,-0.042778,-0.116703,0.140689,1,1
2454,62,-0.735513,0.006677,-0.153090,0.122370,1,1
2447,62,-0.611165,0.082180,-0.146900,0.075408,1,0
2448,62,-0.750074,-0.014270,-0.208439,0.023256,1,1
2457,62,-0.803141,0.015186,-0.061198,0.127301,1,1
2502,63,-0.757758,-0.098524,-0.187079,0.033724,1,1
2480,63,-0.769009,0.017512,-0.110138,0.020317,1,1
2506,63,-0.722246,0.025696,-0.218011,0.108251,1,1
2519,63,-0.768389,0.032155,-0.283535,0.063353,1,1
2495,63,-0.656686,-0.060674,-0.110920,-0.023675,1,1
2481,63,-0.649666,0.051631,-0.019786,0.066609,1,1
2518,63,-0.725597,-0.026889,-0.265675,0.075418,1,1
2511,63,-0.714273,-0.054976,-0.199024,-0.061416,1,1
2490,63,-0.785928,0.095560,-0.259808,0.005142,1,0
2496,63,-0.845832,-0.008553,-0.124306,0.133539,1,1
2493,63,-0.769450,-0.088675,-0.190331,0.058590,1,1
2505,63,-0.730605,0.023167,-0.297725,-0.042053,1,1
2483,63,-0.769946,0.080572,-0.160374,0.046310,1,1
2514,63,-0.745302,-0.088135,-0.281445,0.021952,1,1
2492,63,-0.777737,0.048874,-0.124420,0.052055,1,1
2491,63,-0.630228,0.028087,-0.223336,0.090014,1,1
2489,63,-0.770430,-0.005338,-0.217264,0.092166,1,1
2484,63,-0.786969,-0.023287,-0.217657,0.036990,1,1
2509,63,-0.708491,0.033335,-0.220816,-0.009842,1,1
2500,63,-0.786483,-0.041857,-0.305087,0.023501,1,1
2501,63,-0.728144,-0.009266,-0.262495,0.031959,1,1
2485,63,-0.656853,-0.000449,-0.247673,0.125132,1,1
2517,63,-0.726423,0.015356,-0.200148,0.072726,1,1
2516,63,-0.739912,-0.095473,-0.165426,0.004712,1,1
2508,63,-0.704864,-0.069058,-0.209230,0.112827,1,1
2487,63,-0.718975,-0.065268,-0.114596,0.069754,1,1
2504,63,-0.731965,-0.013288,-0.210683,0.043587,1,1
2503,63,-0.858050,0.018136,-0.229726,0.013918,1,1
2515,63,-0.852517,-0.060189,-0.212883,0.066124,1,1
2512,63,-0.706863,-0.021811,-0.124643,-0.003484,1,1
2486,63,-0.808022,-0.006389,-0.123728,0.115491,1,1
2482,63,-0.672590,0.000104,-0.082862,0.059357,1,1
2494,63,-0.709463,-0.004690,-0.183686,0.070744,1,1
2488,63,-0.689600,0.030016,-0.047101,0.068871,1,1
2498,63,-0.717988,-0.016585,-0.172968,0.010999,1,1
2507,63,-0.668395,-0.065581,-0.234497,0.105970,1,1
2497,63,-0.738709,0.040845,-0.140882,0.003185,1,1
2499,63,-0.788193,-0.028056,-0.179536,0.086038,1,1
2510,63,-0.663530,-0.035983,-0.284257,0.077756,1,1
2513,63,-0.808376,-0.103673,-0.246720,0.037915,1,1
2522,64,-0.804516,-0.044598,-0.147567,0.039885,1,1
2541,64,-0.701863,-0.078961,-0.101932,0.191366,1,1
2521,64,-0.734333,-0.014222,-0.100270,0.084421,1,1
2543,64,-0.673821,-0.082538,-0.123884,0.278112,1,1
2557,64,-0.659767,-0.100000,-0.063502,0.155721,1,1
2556,64,-0.728394,-0.097875,-0.080642,0.174505,1,1
2531,64,-0.766061,0.008670,-0.070088,0.136444,1,1
2548,64,-0.782124,-0.014047,-0.090387,0.238469,1,1
2529,64,-0.814332,0.052023,-0.100767,0.020406,1,1
2544,64,-0.759566,-0.024730,-0.115241,0.198214,1,1
2545,64,-0.716690,-0.027126,-0.064611,0.135459,1,1
2546,64,-0.805056,-0.085610,-0.131852,0.191700,1,1
2559,64,-0.732642,-0.073127,-0.139555,0.232203,1,1
2535,64,-0.866611,-0.028748,-0.069426,0.066372,1,1
2523,64,-0.731390,0.027407,-0.182726,0.086027,1,1
2553,64,-0.754957,0.005993,-0.032152,0.221247,1,1
2555,64,-0.834667,-0.040587,-0.123318,0.211428,1,1
2552,64,-0.741181,0.049785,-0.041910,0.247273,1,1
2550,64,-0.680972,-0.150468,-0.121911,0.269135,0,1
2539,64,-0.710098,0.004619,-0.048391,0.106652,1,1
2542,64,-0.775180,-0.110954,-0.080835,0.241908,1,1
2549,64,-0.710515,-0.029607,-0.106951,0.261899,1,1
2551,64,-0.722269,-0.001396,-0.020371,0.187972,1,1
2558,64,-0.679158,-0.075671,-0.114705,0.193497,1,1
2537,64,-0.673340,0.069620,-0.171759,0.027661,1,1
2524,64,-0.720455,-0.032936,-0.193650,0.083544,1,1
2533,64,-0.738967,-0.030900,-0.132694,0.098718,1,1
2540,64,-0.712335,-0.135548,-0.088104,0.270767,1,1
2526,64,-0.845180,-0.038365,-0.167031,0.045692,1,1
2547,64,-0.789784,0.003138,-0.116764,0.202641,1,1
2520,64,-0.731474,-0.001733,-0.186769,0.065482,1,1
2538,64,-0.750383,-0.056147,-0.252235,0.098073,1,1
2536,64,-0.828633,-0.064988,-0.145404,0.040966,1,1
2525,64,-0.774376,-0.023091,-0.163799,0.066352,1,1
2530,64,-0.669248,-0.037390,-0.158297,0.229490,1,1
2528,64,-0.692016,0.094692,-0.164663,0.071631,1,0
2554,64,-0.764501,-0.015529,-0.105042,0.220737,1,1
2532,64,-0.696309,-0.008060,-0.083080,0.016766,1,1
2534,64,-0.752073,-0.092683,-0.155646,0.075196,1,1
2527,64,-0.745352,-0.011224,-0.088993,0.100262,1,1
2592,65,-0.660740,-0.084109,-0.139635,0.228635,1,1
2560,65,-0.768112,0.009533,-0.145308,0.062760,1,1
2591,65,-0.726250,-0.068300,-0.125564,0.114118,1,1
2573,65,-0.702681,-0.002102,-0.131399,0.046535,1,1
2586,65,-0.705561,-0.037637,-0.143398,0.211758,1,1
2585,65,-0.712320,-0.035452,-0.131846,0.138116,1,1
2568,65,-0.554256,-0.068992,-0.177747,0.098442,1,0
2565,65,-0.731052,-0.037219,-0.195921,0.105640,1,1
2569,65,-0.694875,0.048591,-0.243025,0.102670,1,1
2578,65,-0.787773,-0.105944,-0.116080,0.136100,1,1
2590,65,-0.811446,0.002929,-0.106164,0.233009,1,1
2589,65,-0.697596,0.007132,-0.114428,0.253527,1,1
2579,65,-0.731757,-0.058270,-0.225283,0.110046,1,1
2567,65,-0.631837,0.075133,-0.111173,0.027990,1,0
2594,65,-0.717639,-0.088239,-0.132353,0.231427,1,1
2581,65,-0.690066,-0.100996,-0.080832,0.271337,1,1
2564,65,-0.764628,-0.049506,-0.280201,0.071168,1,1
2562,65,-0.714067,-0.028605,-0.140699,0.028728,1,1
2561,65,-0.770539,0.014902,-0.172636,0.140706,1,1
2583,65,-0.754702,-0.033532,-0.004928,0.088781,1,1
2593,65,-0.703983,-0.069579,-0.076043,0.249815,1,1
2576,65,-0.794461,0.014213,-0.063889,0.078410,1,1
2580,65,-0.822694,-0.094074,-0.082949,0.203980,1,1
2599,65,-0.818393,0.016559,-0.121541,0.212829,1,1
2570,65,-0.709766,-0.078907,-0.034486,0.091977,1,1
2595,65,-0.706584,-0.042028,-0.111268,0.156188,1,1
2597,65,-0.739573,-0.110702,-0.115304,0.114271,1,1
2596,65,-0.806273,-0.125539,-0.114362,0.269741,1,1
2598,65,-0.740107,-0.027016,-0.093596,0.123097,1,1
2574,65,-0.777109,-0.074259,-0.120825,0.138831,1,1
2588,65,-0.688467,-0.032115,-0.030129,0.286752,1,1
2572,65,-0.738005,0.034314,-0.100939,0.012962,1,1
2563,65,-0.675700,0.016178,-0.156550,0.109201,1,1
2582,65,-0.730409,-0.083741,-0.107716,0.249397,1,1
2575,65,-0.776747,0.001215,-0.284862,0.105708,1,1
2571,65,-0.715893,0.025349,-0.175411,0.110181,1,1
2584,65,-0.671374,0.003129,-0.089665,0.212857,1,1
2577,65,-0.739077,-0.069638,-0.058615,-0.000108,1,1
2566,65,-0.730202,-0.031837,-0.133850,0.088283,1,1
2587,65,-0.764924,-0.123288,-0.088354,0.186091,1,1
2631,66,-0.718142,-0.074932,-0.036952,0.198569,1,1
2613,66,-0.726732,0.032745,-0.139045,0.083784,1,1
2632,66,-0.766212,-0.072600,-0.092603,0.244988,1,1
2609,66,-0.806554,0.080054,-0.190051,0.090073,1,0
2620,66,-0.788566,-0.051972,-0.091286,0.160109,1,1
2622,66,-0.644626,-0.042582,-0.028069,0.262185,1,1
2600,66,-0.730607,-0.039839,-0.072680,-0.035228,1,1
2610,66,-0.716513,-0.052632,-0.136670,0.082977,1,1
2604,66,-0.681967,0.024166,-0.071763,0.016807,1,1
2617,66,-0.819383,0.049953,-0.186266,0.063215,1,1
2614,66,-0.745588,0.036793,-0.101358,0.005504,1,1
2602,66,-0.733122,0.000581,-0.133522,0.125066,1,1
2624,66,-0.696896,-0.039825,-0.146236,0.201642,1,1
2636,66,-0.780378,-0.061854,-0.085663,0.256084,1,1
2601,66,-0.749593,-0.023500,-0.155221,0.095771,1,1
2619,66,-0.748706,0.057297,-0.187902,0.047467,1,1
2608,66,-0.741535,-0.030910,-0.115289,0.058663,1,1
2627,66,-0.752092,-0.055325,-0.069742,0.251396,1,1
2629,66,-0.698130,-0.047854,-0.008559,0.131470,1,1
2638,66,-0.709623,-0.101821,-0.108608,0.169662,1,1
2612,66,-0.733448,0.028262,-0.160830,0.133985,1,1
2623,66,-0.768504,-0.093260,-0.134606,0.115988,1,1
2628,66,-0.751504,-0.026359,-0.029894,0.237442,1,1
2630,66,-0.758157,-0.097754,-0.058652,0.140037,1,1
2616,66,-0.748933,-0.031854,-0.169041,0.083574,1,1
2625,66,-0.722635,-0.046293,-0.025502,0.158460,1,1
2633,66,-0.771033,-0.021396,-0.180867,0.127354,1,1
2603,66,-0.630793,-0.039564,-0.152535,0.122197,1,1
2611,66,-0.715571,0.015582,-0.145208,0.110258,1,1
2615,66,-0.767694,0.014930,-0.150311,0.075194,1,1
2637,66,-0.793183,-0.061171,-0.118898,0.195595,1,1
2626,66,-0.712719,-0.056603,-0.053271,0.237270,1,1
2605,66,-0.724494,-0.007699,-0.068609,0.032731,1,1
2618,66,-0.784610,-0.054737,-0.113876,0.016240,1,1
2635,66,-0.784456,-0.096646,-0.125890,0.293631,1,1
2621,66,-0.724430,-0.060270,-0.179355,0.189763,1,1
2639,66,-0.801484,-0.078071,-0.103749,0.225921,1,1
2606,66,-0.709043,0.047022,-0.139471,0.092372,1,1
2607,66,-0.759090,-0.044400,-0.103753,0.036586,1,1
2634,66,-0.740047,-0.100001,0.056882,0.245845,1,1
2652,67,-0.685243,-0.051741,-0.187520,0.106111,1,1
2664,67,-0.751370,-0.015850,-0.131123,0.125189,1,1
2667,67,-0.719954,-0.083695,-0.089543,0.195338,1,1
2648,67,-0.705859,-0.017954,-0.113116,0.067806,1,1
2661,67,-0.807821,0.007700,-0.048145,0.223237,1,1
2651,67,-0.623118,0.080757,-0.136678,0.124474,1,0
2642,67,-0.714082,0.079696,-0.188852,0.144981,1,1
2641,67,-0.715610,0.026238,-0.102113,0.105257,1,1
2658,67,-0.728386,-0.047924,-0.127932,0.073683,1,1
2674,67,-0.791506,-0.100816,-0.097485,0.256836,1,1
2647,67,-0.662766,0.035241,-0.130614,0.094900,1,1
2663,67,-0.685453,-0.022237,-0.147748,0.144893,1,1
2670,67,-0.702133,-0.096088,-0.017320,0.151657,1,1
2644,67,-0.792451,-0.020455,-0.204981,0.084417,1,1
2657,67,-0.695306,0.020664,-0.251081,0.021736,1,1
2673,67,-0.753949,-0.066157,-0.043378,0.252012,1,1
2677,67,-0.689654,-0.055724,-0.145115,0.192145,1,1
2655,67,-0.687761,-0.079222,-0.035084,0.090107,1,1
2659,67,-0.713985,0.043034,-0.196573,0.193683,1,1
2646,67,-0.774688,0.023613,-0.077377,0.004146,1,1
2679,67,-0.722203,-0.046348,-0.005322,0.154089,1,1
2671,67,-0.746591,-0.040661,-0.064298,0.205145,1,1
2656,67,-0.729931,0.010812,-0.142813,0.019626,1,1
2650,67,-0.718921,0.002761,-0.213819,0.150863,1,1
2654,67,-0.770383,0.012162,-0.165584,0.125694,1,1
2668,67,-0.755628,-0.010095,-0.061785,0.200979,1,1
2653,67,-0.669410,-0.177078,-0.098908,-0.033229,1,1
2640,67,-0.787773,-0.129044,-0.188785,0.155634,1,1
2666,67,-0.744159,-0.139903,-0.068415,0.242497,1,1
2675,67,-0.742865,-0.075411,-0.168296,0.172052,1,1
2676,67,-0.715961,-0.037969,-0.083549,0.199422,1,1
2669,67,-0.714464,-0.027814,-0.150548,0.202489,1,1
2660,67,-0.780127,-0.080524,-0.005750,0.196328,1,1
2665,67,-0.679636,-0.000141,-0.142886,0.205102,1,1
2678,67,-0.771765,0.019987,-0.067354,0.204609,1,1
2672,67,-0.782120,-0.123321,-0.184054,0.146223,1,1
2645,67,-0.712989,-0.029011,-0.218875,-0.021560,1,1
2649,67,-0.746635,0.001425,-0.118298,0.077893,1,1
2662,67,-0.656623,-0.032140,-0.065700,0.205725,1,1
2643,67,-0.701889,0.008172,-0.210332,0.097281,1,1
2697,68,-0.663815,-0.009529,-0.094098,0.157485,1,1
2693,68,-0.730167,-0.041495,-0.178204,0.030578,1,1
2692,68,-0.608141,-0.055100,-0.251919,0.064803,1,1
2716,68,-0.704331,-0.074290,-0.043568,0.243225,1,1
2682,68,-0.616178,-0.020911,-0.200946,0.115266,1,1
2688,68,-0.763857,0.001257,-0.135927,0.111146,1,1
2687,68,-0.808015,-0.073682,-0.127984,0.048396,1,1
2689,68,-0.745806,-0.063381,-0.040532,0.094616,1,1
2711,68,-0.822318,-0.029920,-0.067193,0.288793,1,1
2717,68,-0.705618,-0.059655,-0.079849,0.176772,1,1
2680,68,-0.640209,-0.037855,-0.120993,0.040192,1,1
2701,68,-0.761882,-0.147469,-0.002546,0.176391,1,1
2706,68,-0.833283,0.049668,-0.020047,0.254908,1,1
2708,68,-0.744689,-0.008948,-0.233241,0.256921,1,1
2686,68,-0.762259,0.006995,-0.127327,0.121977,1,1
2710,68,-0.733722,-0.085228,-0.102734,0.251722,1,1
2683,68,-0.759341,0.050112,-0.156105,0.118857,1,1
2690,68,-0.691269,0.006446,-0.109567,0.023353,1,1
2699,68,-0.794726,-0.025522,-0.215164,0.098370,1,1
2707,68,-0.702252,-0.074997,-0.073313,0.286034,1,1
2704,68,-0.735269,0.076477,-0.034301,0.148875,1,1
2714,68,-0.757763,-0.049662,-0.108699,0.123687,1,1
2719,68,-0.635878,0.053709,-0.019706,0.232049,1,1
2702,68,-0.703602,-0.047729,-0.084277,0.177238,1,1
2718,68,-0.730970,0.012154,-0.063101,0.236034,1,1
2691,68,-0.775472,0.104136,-0.180873,-0.037978,1,0
2694,68,-0.752722,-0.132038,-0.153632,0.062731,1,1
2698,68,-0.698096,0.074538,-0.205352,0.003574,1,1
2713,68,-0.692579,-0.123722,-0.085983,0.130353,1,1
2705,68,-0.669059,-0.054885,-0.081331,0.217306,1,1
2684,68,-0.670523,0.035517,-0.180119,0.076122,1,1
2715,68,-0.619407,-0.139462,-0.050118,0.221427,0,1
2712,68,-0.788739,-0.001781,-0.142470,0.233175,1,1
2709,68,-0.765650,-0.097681,-0.235094,0.208460,1,1
2681,68,-0.786014,-0.057296,-0.207863,0.085665,1,1
2685,68,-0.661964,-0.073320,-0.035158,0.021330,1,1
2695,68,-0.666497,0.016602,-0.130207,0.077190,1,1
2700,68,-0.762212,-0.001409,-0.100501,0.099581,1,1
2696,68,-0.766465,0.055153,-0.101548,0.057622,1,1
2703,68,-0.716468,-0.186086,-0.092917,0.123001,0,1
2720,69,-0.713336,0.030600,-0.156033,0.094104,1,1
2759,69,-0.739466,-0.122363,-0.182943,0.267215,1,1
2737,69,-0.728253,-0.029548,-0.002245,0.032871,1,1
2725,69,-0.664268,0.045380,-0.144617,0.039503,1,1
2739,69,-0.661058,-0.026074,-0.156706,0.061392,1,1
2750,69,-0.735690,-0.035992,-0.069307,0.235234,1,1
2754,69,-0.764352,-0.037374,-0.038893,0.209394,1,1
2749,69,-0.784149,-0.084676,-0.087714,0.305735,1,1
2730,69,-0.733365,0.036596,-0.126527,0.135051,1,1
2753,69,-0.659231,-0.090037,-0.092895,0.154193,1,1
2742,69,-0.681552,-0.010202,-0.078513,0.206573,1,1
2731,69,-0.644206,-0.056811,-0.052425,0.157687,1,1
2748,69,-0.804945,-0.136825,-0.085002,0.168561,0,1
2745,69,-0.771577,-0.111405,-0.154983,0.161140,1,1
2738,69,-0.767375,-0.012935,-0.233204,0.180911,1,1
2727,69,-0.652549,0.016771,-0.097200,0.152232,1,1
2735,69,-0.727157,0.075935,-0.118227,0.084850,1,1
2740,69,-0.749833,-0.044679,-0.100206,0.180503,1,1
2726,69,-0.794037,-0.002488,-0.133515,-0.019203,1,1
2734,69,-0.636865,0.024775,-0.041162,0.016200,1,1
2723,69,-0.830782,-0.028056,-0.122019,0.039296,1,1
2751,69,-0.705765,-0.007489,0.007354,0.110826,1,1
2758,69,-0.713164,-0.023034,-0.094661,0.228213,1,1
2733,69,-0.725439,-0.003751,-0.105779,0.095510,1,1
2752,69,-0.679742,-0.135058,-0.052636,0.254784,1,1
2743,69,-0.769031,-0.019810,-0.145059,0.279649,1,1
2729,69,-0.748285,0.021752,-0.287884,0.098404,1,1
2746,69,-0.723151,-0.024856,-0.160298,0.168660,1,1
2722,69,-0.828116,-0.016879,-0.210425,0.084995,1,1
2744,69,-0.718483,-0.200015,-0.214517,0.247749,0,1
2732,69,-0.739712,0.025844,-0.142146,0.122520,1,1
2756,69,-0.731663,-0.030256,-0.054284,0.238988,1,1
2728,69,-0.765824,-0.084158,-0.031289,0.203835,1,1
2736,69,-0.744748,0.054002,-0.099616,0.087767,1,1
2724,69,-0.784766,0.040098,-0.101086,0.132566,1,1
2747,69,-0.657914,-0.160422,-0.137982,0.234035,0,1
2757,69,-0.664727,-0.050026,-0.114420,0.216965,1,1
2721,69,-0.736554,0.017820,-0.157774,0.114550,1,1
2755,69,-0.796665,-0.000556,-0.092485,0.190366,1,1
2741,69,-0.769754,-0.151539,-0.024237,0.166030,0,1
2761,70,-0.796649,-0.027199,-0.250013,-0.023055,1,1
2782,70,-0.713650,-0.033722,-0.145415,0.219489,1,1
2760,70,-0.701195,0.001931,-0.157943,0.124299,1,1
2779,70,-0.705368,0.050254,-0.162624,0.096902,1,1
2780,70,-0.616233,-0.058971,-0.062763,0.156750,1,1
2764,70,-0.693545,-0.057235,-0.123117,0.087749,1,1
2787,70,-0.694378,-0.050509,-0.089213,0.241416,1,1
2771,70,-0.720077,-0.026836,-0.144067,0.106032,1,1
2766,70,-0.743619,-0.009257,-0.148086,0.102618,1,1
2775,70,-0.779274,-0.032524,-0.226365,0.088312,1,1
2796,70,-0.785051,-0.140058,-0.024526,0.222885,0,1
2762,70,-0.699694,0.007874,-0.108764,0.065254,1,1
2786,70,-0.702285,0.011450,-0.105582,0.247820,1,1
2794,70,-0.717688,-0.033951,-0.169671,0.167155,1,1
2793,70,-0.656695,-0.047191,-0.124599,0.332167,1,1
2785,70,-0.692884,-0.031150,-0.102945,0.216283,1,1
2789,70,-0.809484,-0.081551,-0.086024,0.171303,1,1
2783,70,-0.711081,-0.059617,-0.046477,0.227876,1,1
2795,70,-0.748104,-0.046120,-0.065821,0.150013,1,1
2797,70,-0.817727,-0.154032,-0.045563,0.136162,0,1
2772,70,-0.733860,0.016550,-0.164173,0.060323,1,1
2798,70,-0.660243,-0.112426,-0.064263,0.296912,1,1
2773,70,-0.759703,0.026768,-0.130853,0.147511,1,1
2784,70,-0.604435,-0.078877,-0.095483,0.153149,1,1
2799,70,-0.689626,0.005441,-0.073489,0.315206,1,1
2765,70,-0.702699,-0.043434,-0.184209,0.097991,1,1
2790,70,-0.691133,-0.060654,-0.047381,0.316161,1,1
2763,70,-0.712320,-0.064725,-0.099276,0.047592,1,1
2778,70,-0.696174,-0.057827,-0.194080,0.055704,1,1
2774,70,-0.749885,0.037478,-0.143804,0.060117,1,1
2768,70,-0.749636,0.018705,-0.207791,0.128337,1,1
2769,70,-0.713583,-0.101288,-0.067495,0.105732,1,1
2788,70,-0.682807,-0.036125,-0.069758,0.224543,1,1
2781,70,-0.818875,-0.082736,-0.062439,0.262299,1,1
2792,70,-0.685134,-0.004520,-0.050619,0.170980,1,1
2770,70,-0.736336,-0.088502,-0.135288,0.123525,1,1
2767,70,-0.765748,0.014417,-0.145554,0.060573,1,1
2776,70,-0.555709,-0.004919,-0.065087,0.066246,1,0
2791,70,-0.757658,-0.074856,-0.103049,0.269192,1,1
2777,70,-0.726985,0.010645,-0.074727,0.115354,1,1
2836,71,-0.697644,-0.000464,-0.017277,0.228062,1,1
2817,71,-0.761564,-0.015496,-0.080303,0.157167,1,1
2826,71,-0.739637,-0.020899,-0.108859,0.237079,1,1
2835,71,-0.757628,-0.088702,-0.075464,0.157032,1,1
2808,71,-0.759019,-0.026819,-0.040330,0.174042,1,1
2822,71,-0.726362,-0.092947,-0.027063,0.142702,1,1
2810,71,-0.758830,0.037433,-0.242551,0.127846,1,1
2809,71,-0.828324,0.020669,-0.173231,0.108275,1,1
2829,71,-0.738572,-0.017073,-0.099242,0.200766,1,1
2818,71,-0.673808,-0.095429,-0.145576,0.161172,1,1
2801,71,-0.735376,-0.032827,-0.160529,0.136684,1,1
2828,71,-0.688850,-0.025712,-0.045180,0.215552,1,1
2827,71,-0.652603,-0.066883,-0.152241,0.132302,1,1
2830,71,-0.728039,-0.033916,-0.086181,0.267417,1,1
2811,71,-0.733318,0.091030,-0.173572,0.102318,1,1
2819,71,-0.794272,0.035264,-0.129748,0.061996,1,1
2816,71,-0.776651,-0.060554,-0.164889,0.119096,1,1
2812,71,-0.694694,-0.026465,-0.105167,0.116494,1,1
2824,71,-0.717452,-0.042005,0.019443,0.246690,1,1
2806,71,-0.692933,0.031865,-0.135257,0.136663,1,1
2803,71,-0.731916,0.074233,-0.201970,0.130004,1,1
2814,71,-0.763098,-0.022688,-0.090239,0.150736,1,1
2802,71,-0.749184,-0.041915,-0.164163,0.045307,1,1
2821,71,-0.768004,-0.029959,-0.050331,0.276853,1,1
2813,71,-0.639646,-0.063694,-0.173542,0.071213,1,1
2804,71,-0.667059,-0.025332,-0.185395,0.075281,1,1
2825,71,-0.795629,-0.042604,-0.109340,0.181632,1,1
2800,71,-0.730820,0.052160,-0.099716,0.120950,1,1
2832,71,-0.689451,0.002792,-0.125963,0.330595,1,1
2820,71,-0.771994,-0.020688,-0.101522,0.246181,1,1
2838,71,-0.737700,-0.003080,-0.094422,0.181773,1,1
2831,71,-0.795599,-0.042610,-0.017778,0.140888,1,1
2807,71,-0.728459,0.023144,-0.160562,0.116873,1,1
2833,71,-0.735740,-0.065127,-0.098394,0.150382,1,1
2815,71,-0.701188,-0.007685,-0.166927,0.097137,1,1
2837,71,-0.730078,-0.080285,-0.079667,0.164774,1,1
2805,71,-0.737121,0.104111,-0.215164,0.164049,1,0
2823,71,-0.685863,-0.072021,-0.114988,0.193585,1,1
2834,71,-0.735646,-0.108888,-0.099239,0.208663,1,1
2839,71,-0.807005,0.012416,-0.012153,0.158924,1,1
2855,72,-0.692052,0.017253,-0.166873,0.166062,1,1
2873,72,-0.687592,-0.117173,-0.053304,0.215709,1,1
2850,72,-0.656310,-0.042794,-0.070052,0.104811,1,1
2852,72,-0.679118,-0.037051,-0.112299,0.197182,1,1
2877,72,-0.737415,-0.062140,-0.074944,0.236650,1,1
2842,72,-0.692326,0.032525,-0.158742,-0.042886,1,1
2848,72,-0.699270,0.064465,-0.151194,-0.002356,1,1
2874,72,-0.706940,-0.137824,-0.030735,0.241560,1,1
2860,72,-0.614056,-0.037240,-0.072392,0.310431,1,1
2864,72,-0.730035,-0.154268,-0.013563,0.181124,0,1
2871,72,-0.734106,-0.111077,-0.064854,0.227633,1,1
2858,72,-0.786141,-0.025034,-0.148335,0.100999,1,1
2865,72,-0.749261,-0.148795,-0.040667,0.219250,1,1
2840,72,-0.768146,-0.026090,-0.206042,0.046036,1,1
2869,72,-0.661220,-0.055733,-0.162811,0.337489,1,1
2863,72,-0.713862,-0.123497,0.046984,0.145448,1,1
2851,72,-0.770634,-0.004771,-0.064474,0.166452,1,1
2879,72,-0.809736,-0.099751,-0.024422,0.262510,1,1
2856,72,-0.668366,-0.066347,-0.153667,0.118492,1,1
2861,72,-0.717856,0.007351,-0.085968,0.224318,1,1
2844,72,-0.820418,-0.032694,-0.146767,0.140070,1,1
2872,72,-0.708188,-0.012637,-0.106237,0.267761,1,1
2866,72,-0.721344,-0.009569,-0.019713,0.222878,1,1
2878,72,-0.747439,-0.058595,-0.106492,0.235609,1,1
2849,72,-0.706183,0.054355,-0.109225,0.095165,1,1
2859,72,-0.741853,0.039701,-0.077192,0.056402,1,1
2867,72,-0.790257,0.013950,-0.099705,0.218962,1,1
2876,72,-0.698188,-0.066901,-0.142984,0.258985,1,1
2847,72,-0.687490,0.053380,-0.150943,0.118145,1,1
2854,72,-0.669453,-0.049098,-0.121061,0.201393,1,1
2843,72,-0.690255,-0.068602,-0.175136,0.063894,1,1
2853,72,-0.778850,-0.038351,-0.213332,0.097455,1,1
2857,72,-0.763610,0.038126,-0.143340,0.109645,1,1
2845,72,-0.748235,-0.020972,-0.163655,0.063989,1,1
2862,72,-0.745042,-0.008870,-0.063013,0.134191,1,1
2868,72,-0.739783,-0.163266,-0.115517,0.132632,0,1
2870,72,-0.730484,-0.108248,-0.012391,0.151879,1,1
2846,72,-0.664834,0.004701,-0.134487,0.079042,1,1
2841,72,-0.741002,-0.058038,-0.168656,0.057661,1,1
2875,72,-0.776998,-0.090127,-0.115277,0.214533,1,1
2916,73,-0.670111,-0.024672,-0.063214,0.235800,1,1
2885,73,-0.710360,0.029329,-0.036665,0.146403,1,1
2883,73,-0.658934,-0.039820,-0.122010,0.066775,1,1
2909,73,-0.763466,-0.015952,-0.130822,0.146292,1,1
2918,73,-0.759963,-0.037368,0.009276,0.235178,1,1
2911,73,-0.781759,-0.041951,-0.096445,0.171288,1,1
2887,73,-0.634459,-0.070398,-0.124915,0.113550,1,1
2906,73,-0.784323,-0.060618,-0.046203,0.225877,1,1
2890,73,-0.779797,0.002070,-0.173431,0.152145,1,1
2912,73,-0.766596,-0.095432,-0.150714,0.213514,1,1
2900,73,-0.670560,-0.013298,-0.089245,0.265042,1,1
2917,73,-0.720994,-0.083129,-0.198657,0.144213,1,1
2891,73,-0.691182,0.033153,-0.113068,0.039686,1,1
2902,73,-0.746128,-0.088265,-0.090313,0.256442,1,1
2881,73,-0.762168,-0.024952,-0.114856,0.036841,1,1
2913,73,-0.711537,-0.107943,-0.040725,0.166347,1,1
2907,73,-0.725915,-0.040049,-0.064678,0.218491,1,1
2893,73,-0.751221,-0.027049,-0.164978,0.098684,1,1
2915,73,-0.746890,-0.032241,-0.131010,0.241980,1,1
2895,73,-0.724639,-0.016032,-0.198317,0.087565,1,1
2882,73,-0.748561,-0.022636,-0.027035,0.018479,1,1
2919,73,-0.762147,-0.075513,-0.076566,0.191036,1,1
2884,73,-0.717608,0.018837,-0.117514,0.124863,1,1
2905,73,-0.729836,-0.053473,-0.115401,0.169492,1,1
2897,73,-0.770024,0.027123,-0.139609,0.020631,1,1
2886,73,-0.719695,-0.042792,-0.118725,0.043340,1,1
2894,73,-0.707992,0.000277,-0.042300,0.132719,1,1
2880,73,-0.783921,-0.015528,-0.141737,0.059920,1,1
2898,73,-0.668314,0.123395,-0.049644,0.055818,1,0
2903,73,-0.761072,-0.073253,-0.143815,0.227824,1,1
2888,73,-0.701996,0.037026,-0.053783,0.036940,1,1
2889,73,-0.683203,-0.106605,-0.103373,0.096931,1,1
2896,73,-0.729990,0.044847,-0.073009,0.091556,1,1
2899,73,-0.678096,-0.091858,-0.100093,0.180899,1,1
2901,73,-0.714102,-0.066553,-0.099382,0.160896,1,1
2904,73,-0.789088,-0.123960,-0.112246,0.203615,1,1
2892,73,-0.693398,0.025920,-0.058971,0.042788,1,1
2914,73,-0.699572,0.020987,-0.072917,0.161136,1,1
2908,73,-0.755514,-0.076820,-0.073923,0.252501,1,1
2910,73,-0.717681,-0.037225,-0.161439,0.135517,1,1
2929,74,-0.608433,0.038405,-0.116033,0.121994,1,0
2930,74,-0.804941,-0.027056,-0.077447,0.147318,1,1
2921,74,-0.653056,-0.094466,-0.071052,0.056293,1,1
2936,74,-0.798423,0.026673,-0.113080,0.167358,1,1
2927,74,-0.755584,0.078454,-0.070367,0.104352,1,1
2947,74,-0.674001,-0.062855,0.016981,0.118483,1,1
2935,74,-0.712054,-0.031111,-0.087832,0.071260,1,1
2938,74,-0.734443,-0.002432,-0.088757,0.094021,1,1
2954,74,-0.804878,-0.149984,-0.087785,0.220339,0,1
2948,74,-0.753398,-0.094435,-0.089838,0.293926,1,1
2934,74,-0.780803,0.017876,-0.141150,0.049683,1,1
2944,74,-0.742123,-0.160900,-0.215994,0.204674,0,1
2959,74,-0.768463,0.020406,-0.081632,0.210446,1,1
2943,74,-0.735552,-0.028430,-0.050567,0.218212,1,1
2920,74,-0.696602,0.048906,-0.085935,0.130732,1,1
2926,74,-0.744336,-0.061572,-0.137127,0.154849,1,1
2933,74,-0.718803,0.064060,-0.146247,0.121240,1,1
2950,74,-0.759595,-0.088341,-0.019064,0.223319,1,1
2951,74,-0.766453,-0.050503,-0.043994,0.183089,1,1
2939,74,-0.724955,-0.096103,-0.155332,0.117180,1,1
2956,74,-0.701831,-0.090099,-0.110148,0.186630,1,1
2953,74,-0.739348,-0.065412,-0.093445,0.245120,1,1
2949,74,-0.762591,-0.092369,-0.166002,0.134095,1,1
2941,74,-0.706430,-0.101245,-0.127864,0.170815,1,1
2952,74,-0.697204,0.017455,-0.086516,0.183144,1,1
2924,74,-0.737486,0.023033,-0.141435,0.223536,1,1
2925,74,-0.742493,0.057154,-0.197914,0.166312,1,1
2955,74,-0.766458,-0.129622,-0.091125,0.184113,1,1
2946,74,-0.737257,-0.021798,-0.050963,0.177333,1,1
2940,74,-0.686762,-0.074584,-0.088116,0.157869,1,1
2957,74,-0.726973,-0.056152,-0.099099,0.135801,1,1
2958,74,-0.731941,-0.107617,-0.097585,0.213171,1,1
2928,74,-0.798341,0.079196,-0.200375,0.085551,1,0
2922,74,-0.719538,0.037831,-0.169837,0.042637,1,1
2923,74,-0.778500,0.071069,-0.091544,0.067598,1,1
2937,74,-0.735503,0.036325,-0.135007,0.009984,1,1
2942,74,-0.777087,-0.062857,-0.044512,0.057308,1,1
2931,74,-0.749894,0.035833,-0.174267,0.081606,1,1
2945,74,-0.749606,-0.083754,-0.136313,0.239851,1,1
2932,74,-0.704823,-0.007956,-0.135025,0.150194,1,1
2971,75,-0.847283,-0.046678,-0.151681,0.073296,1,1
2977,75,-0.684792,0.092415,-0.148257,0.097918,1,0
2960,75,-0.650234,-0.030834,-0.172917,0.090656,1,1
2975,75,-0.820481,0.044644,-0.094147,0.051579,1,1
2994,75,-0.859981,-0.045725,-0.093496,0.257027,1,1
2995,75,-0.747248,-0.044887,-0.038837,0.254685,1,1
2969,75,-0.770621,-0.122385,-0.103673,0.142697,1,1
2992,75,-0.748359,-0.059244,0.018085,0.176737,1,1
2993,75,-0.705936,-0.114233,-0.035582,0.161736,1,1
2972,75,-0.769400,-0.034975,-0.118911,0.008008,1,1
2968,75,-0.796044,-0.078575,-0.173531,0.055486,1,1
2980,75,-0.759618,-0.115535,-0.038153,0.251112,1,1
2988,75,-0.702731,0.011552,-0.043263,0.223058,1,1
2999,75,-0.701020,0.065385,-0.122419,0.134781,1,1
2965,75,-0.781146,-0.015326,-0.087948,0.073238,1,1
2962,75,-0.589321,0.046912,-0.175249,0.068655,1,0
2964,75,-0.702068,0.028366,-0.053693,0.044905,1,1
2974,75,-0.651032,0.038641,-0.037081,0.078661,1,1
2976,75,-0.742817,0.021408,-0.065772,0.107740,1,1
2997,75,-0.780870,-0.046174,-0.156131,0.303569,1,1
2979,75,-0.704804,-0.129735,-0.139403,-0.030938,1,1
2987,75,-0.758699,-0.016108,-0.087262,0.154696,1,1
2966,75,-0.762380,-0.034676,-0.107044,0.148751,1,1
2961,75,-0.727173,0.053312,-0.124429,0.086135,1,1
2967,75,-0.703290,-0.013538,-0.142835,0.092487,1,1
2970,75,-0.724938,-0.002308,-0.155967,0.086681,1,1
2998,75,-0.679286,-0.073873,-0.093702,0.285368,1,1
2963,75,-0.805789,-0.015361,-0.196152,0.035413,1,1
2991,75,-0.834591,-0.062534,-0.081550,0.228729,1,1
2983,75,-0.645696,-0.064504,-0.053280,0.148522,1,1
2978,75,-0.648849,-0.050534,-0.131246,0.075036,1,1
2984,75,-0.685829,-0.038322,-0.133970,0.176170,1,1
2989,75,-0.660554,-0.053324,-0.025512,0.231888,1,1
2973,75,-0.743119,-0.038528,-0.214567,0.094361,1,1
2986,75,-0.752247,-0.083845,-0.072872,0.148521,1,1
2990,75,-0.682787,-0.042256,-0.064102,0.240236,1,1
2996,75,-0.809048,-0.012027,-0.056965,0.169730,1,1
2981,75,-0.657986,0.033525,-0.095158,0.270186,1,1
2982,75,-0.833435,-0.069234,-0.071181,0.179586,1,1
2985,75,-0.695945,0.000219,-0.093139,0.213076,1,1
3030,76,-0.680999,-0.050446,-0.059098,0.207106,1,1
3036,76,-0.761773,-0.108564,-0.065833,0.156768,1,1
3012,76,-0.678737,0.009786,-0.192908,0.053092,1,1
3029,76,-0.761484,-0.098739,-0.096178,0.199309,1,1
3028,76,-0.730701,-0.025819,0.078281,0.195134,1,1
3023,76,-0.744910,-0.012136,-0.068163,0.265470,1,1
3005,76,-0.667953,0.007600,-0.106181,0.113464,1,1
3010,76,-0.772138,0.028395,-0.156141,0.043259,1,1
3011,76,-0.770619,-0.033073,-0.162809,0.052602,1,1
3006,76,-0.714162,0.044808,-0.145726,0.091553,1,1
3039,76,-0.674683,-0.043315,-0.157090,0.190332,1,1
3019,76,-0.706438,0.000020,-0.042400,0.083006,1,1
3038,76,-0.776099,-0.032090,-0.014900,0.210765,1,1
3014,76,-0.862966,0.066831,-0.112888,0.059884,1,0
3032,76,-0.730079,0.020083,-0.105959,0.172890,1,1
3035,76,-0.731883,-0.034730,-0.104677,0.201934,1,1
3018,76,-0.620381,-0.070269,-0.162366,0.116625,1,1
3020,76,-0.694115,-0.114804,-0.118689,0.261472,1,1
3015,76,-0.756993,-0.024773,-0.194710,0.042701,1,1
3022,76,-0.776607,-0.111991,-0.168071,0.285135,1,1
3027,76,-0.714351,-0.060355,-0.119690,0.258335,1,1
3017,76,-0.710670,-0.029545,-0.084748,0.149312,1,1
3013,76,-0.793357,-0.008970,-0.140219,0.080372,1,1
3024,76,-0.718318,0.004181,-0.085599,0.270628,1,1
3009,76,-0.714888,-0.019380,-0.084157,0.157605,1,1
3008,76,-0.682814,0.048541,-0.118213,0.111054,1,1
3031,76,-0.839120,-0.101933,-0.065847,0.250971,0,1
3007,76,-0.715221,-0.075697,-0.147873,0.186588,1,1
3026,76,-0.730528,0.033439,-0.155720,0.215010,1,1
3003,76,-0.727182,0.062076,-0.126723,0.035359,1,1
3025,76,-0.713855,-0.101967,-0.143912,0.283866,1,1
3021,76,-0.642398,-0.011689,-0.115513,0.183404,1,1
3002,76,-0.758972,-0.025883,-0.143856,0.000028,1,1
3004,76,-0.607124,-0.017585,-0.128579,0.186198,1,1
3037,76,-0.669363,-0.113004,-0.039330,0.206341,1,1
3001,76,-0.607450,-0.001225,-0.192002,0.104467,1,1
3000,76,-0.727982,-0.031340,-0.092981,0.167922,1,1
3016,76,-0.713420,-0.123687,-0.093948,0.039821,1,1
3034,76,-0.775864,-0.012894,-0.150761,0.201306,1,1
3033,76,-0.799907,-0.004872,-0.011773,0.227170,1,1
3055,77,-0.684412,0.013739,-0.167705,0.170511,1,1
3048,77,-0.709382,-0.055846,-0.223233,0.062956,1,1
3047,77,-0.789361,-0.037171,-0.214159,0.134351,1,1
3053,77,-0.757839,-0.050681,-0.190279,0.013854,1,1
3078,77,-0.728653,-0.189849,-0.069345,0.241567,0,1
3051,77,-0.716515,0.009487,-0.178745,0.024664,1,1
3049,77,-0.777939,-0.010997,-0.148296,0.101720,1,1
3064,77,-0.725442,-0.052958,-0.054476,0.236894,1,1
3072,77,-0.706630,0.001627,-0.055720,0.245792,1,1
3067,77,-0.741021,-0.036223,-0.050203,0.217841,1,1
3068,77,-0.719453,-0.098357,-0.156872,0.243550,1,1
3063,77,-0.678662,-0.058107,-0.011146,0.197717,1,1
3076,77,-0.726811,-0.079771,-0.083242,0.211480,1,1
3077,77,-0.699834,-0.132125,-0.090233,0.164102,1,1
3041,77,-0.767222,-0.075245,-0.217857,0.071479,1,1
3050,77,-0.729911,-0.079533,-0.122858,0.094235,1,1
3069,77,-0.813444,-0.041848,-0.128442,0.149053,1,1
3056,77,-0.767134,-0.014787,-0.149845,0.090224,1,1
3070,77,-0.666921,-0.019291,-0.110711,0.172990,1,1
3074,77,-0.730790,-0.139813,-0.080873,0.255581,1,1
3071,77,-0.701549,0.047217,-0.068190,0.242725,1,1
3042,77,-0.755719,0.001768,-0.121405,0.079609,1,1
3060,77,-0.753803,0.003110,-0.096828,0.263030,1,1
3046,77,-0.663918,-0.051798,-0.127544,0.088160,1,1
3066,77,-0.770319,-0.099911,-0.040401,0.187899,1,1
3040,77,-0.806234,0.016601,-0.099301,0.115246,1,1
3079,77,-0.760596,-0.092356,-0.088097,0.196914,1,1
3061,77,-0.719146,-0.066255,-0.137926,0.129614,1,1
3054,77,-0.808615,-0.000557,-0.099820,0.011230,1,1
3045,77,-0.814474,-0.014545,-0.168092,0.043133,1,1
3057,77,-0.721200,0.090411,-0.138784,0.032396,1,1
3058,77,-0.748124,-0.068001,-0.116277,0.088109,1,1
3044,77,-0.707788,-0.021109,-0.070279,0.074917,1,1
3059,77,-0.708662,-0.036263,-0.219015,0.137564,1,1
3075,77,-0.712364,0.000793,-0.107684,0.197541,1,1
3073,77,-0.820773,-0.128050,-0.110941,0.228458,0,1
3062,77,-0.718055,-0.040040,-0.111532,0.231203,1,1
3052,77,-0.661015,0.037967,-0.138385,0.080587,1,1
3043,77,-0.731341,0.047331,-0.169295,0.132054,1,1
3065,77,-0.718193,-0.046986,-0.124613,0.213069,1,1
3095,78,-0.742838,-0.007821,-0.171514,0.048347,1,1
3084,78,-0.760105,0.027112,-0.187707,0.103214,1,1
3119,78,-0.722002,-0.155706,-0.048679,0.282090,0,1
3098,78,-0.777485,0.030451,-0.139328,0.095880,1,1
3082,78,-0.722987,0.061263,-0.170261,0.075395,1,1
3104,78,-0.733473,-0.131607,-0.185371,0.166306,1,1
3091,78,-0.782410,-0.024391,-0.082015,0.147048,1,1
3107,78,-0.659759,-0.081462,-0.066754,0.247615,1,1
3080,78,-0.707360,-0.006687,-0.092516,0.090801,1,1
3116,78,-0.752034,-0.043576,-0.057799,0.303906,1,1
3105,78,-0.726960,-0.090018,-0.002533,0.178284,1,1
3100,78,-0.783257,-0.063755,-0.131753,0.197838,1,1
3088,78,-0.658189,0.029298,-0.188043,0.119109,1,1
3101,78,-0.765050,-0.042921,-0.112717,0.320015,1,1
3111,78,-0.748403,-0.062420,-0.098501,0.224911,1,1
3109,78,-0.732580,-0.023759,-0.158968,0.194704,1,1
3087,78,-0.623159,0.117537,-0.121067,0.132741,1,0
3102,78,-0.652651,-0.017502,-0.123721,0.222208,1,1
3086,78,-0.784982,-0.012832,-0.191640,0.084293,1,1
3117,78,-0.660768,-0.080528,-0.098131,0.178150,1,1
3118,78,-0.738437,-0.008224,-0.110408,0.162162,1,1
3099,78,-0.734094,-0.024716,-0.186231,0.065028,1,1
3090,78,-0.770153,0.087262,-0.152679,0.071118,1,0
3094,78,-0.729148,0.025703,-0.119463,0.012893,1,1
3097,78,-0.708012,-0.015418,-0.151503,0.124541,1,1
3103,78,-0.718880,-0.062045,-0.105050,0.160924,1,1
3092,78,-0.670899,-0.010689,-0.205691,0.029861,1,1
3113,78,-0.782018,-0.056365,-0.070315,0.269429,1,1
3093,78,-0.718967,-0.086835,-0.159347,0.157223,1,1
3112,78,-0.771261,-0.042992,-0.087802,0.248880,1,1
3081,78,-0.698348,-0.025094,-0.076682,0.045724,1,1
3108,78,-0.751889,-0.094607,-0.134643,0.241401,1,1
3096,78,-0.726103,0.036190,-0.194254,0.042824,1,1
3083,78,-0.723892,-0.005241,-0.053047,0.115675,1,1
3089,78,-0.671397,0.005279,-0.018561,0.113745,1,1
3114,78,-0.676792,-0.072331,-0.138897,0.242941,1,1
3085,78,-0.747149,0.028534,-0.145916,0.038432,1,1
3106,78,-0.766374,-0.122291,-0.102269,0.200956,1,1
3115,78,-0.770781,-0.109054,-0.094006,0.205529,1,1
3110,78,-0.720188,-0.013251,-0.050264,0.266454,1,1
3158,79,-0.783197,-0.023740,-0.135088,0.178308,1,1
3139,79,-0.788062,0.020082,-0.236958,0.080735,1,1
3153,79,-0.681161,-0.047780,-0.117327,0.301349,1,1
3150,79,-0.712435,-0.053255,-0.010018,0.235431,1,1
3132,79,-0.719831,0.061139,-0.163780,0.112053,1,1
3145,79,-0.686565,-0.102237,-0.161163,0.283747,1,1
3137,79,-0.702405,0.074477,-0.122704,0.118024,1,1
3128,79,-0.653768,-0.030753,-0.160281,-0.013812,1,1
3136,79,-0.727034,-0.067058,-0.117931,0.059169,1,1
3154,79,-0.771699,-0.093161,-0.063466,0.131666,1,1
3140,79,-0.715998,-0.010732,-0.121067,0.180719,1,1
3146,79,-0.760676,-0.037825,-0.076331,0.167130,1,1
3151,79,-0.662966,0.009630,-0.035447,0.233630,1,1
3148,79,-0.700295,0.002707,-0.140489,0.258657,1,1
3120,79,-0.751058,-0.065802,-0.180929,0.067427,1,1
3123,79,-0.725201,0.102538,-0.185394,0.068324,1,0
3131,79,-0.680518,-0.076140,-0.086325,0.095594,1,1
3133,79,-0.676173,-0.041869,-0.226657,0.072984,1,1
3152,79,-0.691701,-0.026053,-0.145124,0.234654,1,1
3155,79,-0.689631,-0.083134,-0.050805,0.225377,1,1
3138,79,-0.574388,0.047244,-0.228965,0.126908,1,0
3156,79,-0.756996,0.032105,-0.065094,0.167252,1,1
3143,79,-0.706440,-0.081307,-0.059172,0.150756,1,1
3121,79,-0.687599,0.005552,-0.185573,0.056990,1,1
3125,79,-0.692402,-0.025153,-0.122834,0.105814,1,1
3130,79,-0.767422,-0.102598,-0.185564,0.077466,1,1
3129,79,-0.769380,0.033497,-0.191780,0.048542,1,1
3134,79,-0.684281,0.007287,-0.091327,0.078469,1,1
3157,79,-0.771889,0.018315,-0.022781,0.158615,1,1
3124,79,-0.652773,-0.019583,-0.140054,0.098442,1,1
3127,79,-0.759712,-0.018106,-0.186824,0.109092,1,1
3126,79,-0.688990,0.030809,-0.079716,0.024751,1,1
3122,79,-0.735305,0.072484,-0.145555,0.043411,1,1
3142,79,-0.670253,-0.094959,-0.018906,0.245102,1,1
3135,79,-0.768852,-0.033952,-0.195844,0.030746,1,1
3159,79,-0.705438,-0.044108,-0.083338,0.268278,1,1
3149,79,-0.779550,-0.044935,-0.218943,0.181870,1,1
3144,79,-0.751049,-0.091339,-0.049129,0.178707,1,1
3147,79,-0.742692,-0.141945,-0.094010,0.229228,1,1
3141,79,-0.727655,-0.193341,-0.052741,0.212027,0,1
3198,80,-0.751756,-0.047227,-0.092152,0.222846,1,1
3181,80,-0.744248,-0.011242,-0.157092,0.160088,1,1
3172,80,-0.719106,0.007188,0.164531,-0.097879,1,1
3190,80,-0.643554,-0.008266,-0.093376,0.178851,1,1
3171,80,-0.742326,0.105047,0.001311,0.012343,1,0
3162,80,-0.743501,-0.036594,0.098657,-0.035050,1,1
3185,80,-0.702097,-0.112642,-0.080686,0.185413,1,1
3187,80,-0.716728,0.001126,-0.075444,0.275292,1,1
3192,80,-0.742701,-0.087651,-0.074819,0.228555,1,1
3182,80,-0.753555,-0.027887,-0.044776,0.158754,1,1
3170,80,-0.777172,0.039444,0.097151,-0.062875,1,1
3183,80,-0.691527,-0.046802,-0.054501,0.200745,1,1
3188,80,-0.683929,-0.056190,-0.099500,0.198592,1,1
3174,80,-0.648590,0.024236,0.131394,-0.008064,1,1
3179,80,-0.624334,-0.061332,-0.016554,-0.009382,1,1
3165,80,-0.787167,-0.008790,0.080703,0.063964,1,1
3168,80,-0.623784,-0.020143,0.155468,-0.097636,1,1
3195,80,-0.727530,-0.030254,-0.132554,0.121136,1,1
3196,80,-0.689524,-0.002891,-0.063053,0.225402,1,1
3178,80,-0.666864,-0.035686,0.072579,0.096094,1,1
3197,80,-0.683162,-0.023539,-0.111408,0.263290,1,1
3194,80,-0.807938,-0.040183,-0.084962,0.274710,1,1
3161,80,-0.802110,-0.058036,0.091127,-0.023647,1,1
3163,80,-0.765713,0.001711,0.070848,-0.068237,1,1
3175,80,-0.749172,-0.062920,-0.022226,0.045905,1,1
3169,80,-0.720700,-0.056248,0.079216,-0.022573,1,1
3167,80,-0.792374,0.014110,0.069405,0.058119,1,1
3180,80,-0.714514,-0.083315,-0.082381,0.275333,1,1
3164,80,-0.727450,-0.041366,0.072732,-0.048449,1,1
3160,80,-0.726745,-0.083825,0.108016,-0.032830,1,1
3173,80,-0.647984,-0.070640,0.115668,0.094435,1,1
3193,80,-0.605654,-0.132212,-0.113909,0.166753,0,1
3176,80,-0.777046,0.046763,0.094618,-0.041714,1,1
3199,80,-0.702424,-0.073172,-0.127290,0.177294,1,1
3166,80,-0.685865,-0.027605,0.044923,-0.050048,1,1
3186,80,-0.718206,-0.139566,-0.093131,0.245080,1,1
3189,80,-0.655266,-0.040363,-0.141429,0.249587,1,1
3191,80,-0.682931,0.020294,-0.035078,0.179762,1,1
3177,80,-0.751623,-0.031141,0.033163,-0.056814,1,1
3184,80,-0.659418,-0.073800,-0.110800,0.261090,1,1
3232,81,-0.660784,-0.178016,-0.100675,0.248139,0,1
3228,81,-0.713212,-0.047064,-0.073593,0.120870,1,1
3218,81,-0.864887,0.036333,0.077036,-0.006215,1,0
3204,81,-0.662553,-0.021716,0.081301,0.030747,1,1
3223,81,-0.704493,0.004988,-0.154856,0.249767,1,1
3226,81,-0.778617,-0.000829,-0.140898,0.170698,1,1
3208,81,-0.672434,-0.015472,-0.008265,-0.039332,1,1
3230,81,-0.706007,-0.092056,-0.144513,0.287462,1,1
3235,81,-0.611103,-0.055472,-0.058434,0.254892,1,1
3209,81,-0.740270,-0.032361,0.086844,0.049933,1,1
3229,81,-0.753078,-0.113645,0.021433,0.224037,1,1
3238,81,-0.719671,-0.013847,-0.065160,0.194435,1,1
3222,81,-0.688671,-0.101008,0.001508,0.188406,1,1
3212,81,-0.665478,-0.033057,0.135455,-0.033708,1,1
3224,81,-0.751614,-0.071917,-0.126310,0.201901,1,1
3233,81,-0.840912,-0.049436,-0.082218,0.204413,1,1
3215,81,-0.701661,0.007639,0.089103,-0.011379,1,1
3206,81,-0.697646,-0.004214,0.026222,-0.009395,1,1
3207,81,-0.740609,0.002523,0.035869,-0.015358,1,1
3200,81,-0.690384,0.013643,0.018646,-0.044104,1,1
3237,81,-0.771484,-0.093879,-0.092443,0.223098,1,1
3201,81,-0.776683,0.012867,0.047427,0.070565,1,1
3205,81,-0.812319,0.046679,0.034936,0.042558,1,1
3214,81,-0.730346,0.006205,0.137153,0.032966,1,1
3220,81,-0.731085,-0.025149,-0.064383,0.241769,1,1
3210,81,-0.691545,0.014505,0.024934,0.013710,1,1
3216,81,-0.674184,0.077538,0.091536,0.049980,1,1
3225,81,-0.714388,-0.063248,-0.009046,0.129924,1,1
3227,81,-0.732887,-0.024215,-0.084781,0.193680,1,1
3203,81,-0.719525,0.086158,0.084900,-0.025133,1,1
3211,81,-0.679396,0.014440,0.163175,-0.097011,1,1
3239,81,-0.784076,-0.021454,-0.077974,0.175236,1,1
3221,81,-0.712923,-0.021771,-0.061361,0.156036,1,1
3217,81,-0.730037,-0.043424,0.075578,-0.053034,1,1
3213,81,-0.611177,0.007834,0.033732,0.045578,1,1
3219,81,-0.668746,-0.016044,0.029590,-0.008453,1,1
3234,81,-0.757668,-0.017349,-0.131703,0.312412,1,1
3236,81,-0.695551,-0.046924,-0.133060,0.265132,1,1
3231,81,-0.774298,-0.025233,-0.085889,0.156003,1,1
3202,81,-0.760721,-0.055418,0.130712,-0.094686,1,1
3256,82,-0.638882,-0.023429,0.079887,0.000063,1,1
3265,82,-0.731112,-0.033543,0.021824,0.233753,1,1
3275,82,-0.713222,-0.035580,-0.011935,0.286958,1,1
3277,82,-0.773294,0.027278,-0.095990,0.189225,1,1
3270,82,-0.773968,-0.057777,-0.058404,0.151702,1,1
3258,82,-0.716010,0.008686,0.076182,-0.035829,1,1
3279,82,-0.779259,-0.000814,-0.119107,0.093794,1,1
3242,82,-0.749197,0.014706,0.045219,-0.059194,1,1
3261,82,-0.749452,-0.020708,-0.063147,0.244575,1,1
3248,82,-0.802510,0.040292,0.080375,-0.032905,1,1
3272,82,-0.679211,-0.119284,-0.107356,0.194965,1,1
3252,82,-0.767860,-0.011147,0.082954,-0.024449,1,1
3251,82,-0.711965,-0.059922,0.051328,-0.033671,1,1
3273,82,-0.711021,-0.097938,-0.120826,0.295234,1,1
3268,82,-0.717283,-0.127685,-0.075149,0.234458,1,1
3246,82,-0.712435,-0.070415,0.068507,-0.012834,1,1
3267,82,-0.712850,-0.069853,-0.058889,0.186490,1,1
3241,82,-0.742436,-0.020752,0.084252,0.108822,1,1
3249,82,-0.673398,0.101047,-0.041121,0.042927,1,0
3260,82,-0.697311,-0.101288,-0.102159,0.138230,1,1
3250,82,-0.809525,0.059305,0.043609,-0.076948,1,1
3276,82,-0.795930,-0.112569,-0.028941,0.253224,1,1
3278,82,-0.719827,-0.079981,-0.085550,0.162990,1,1
3266,82,-0.817645,-0.055710,-0.095867,0.233231,1,1
3244,82,-0.710651,0.024021,0.158300,-0.115111,1,1
3263,82,-0.727723,-0.042329,-0.021372,0.110394,1,1
3240,82,-0.688635,0.093049,0.099538,0.033239,1,0
3247,82,-0.774811,-0.114688,-0.016106,-0.013360,1,1
3264,82,-0.627332,-0.006129,-0.038437,0.142536,1,1
3253,82,-0.697995,-0.066957,0.016359,-0.026335,1,1
3254,82,-0.703465,-0.072644,0.125883,0.037722,1,1
3274,82,-0.700619,-0.052455,-0.066240,0.270732,1,1
3271,82,-0.709180,-0.082882,-0.062231,0.180669,1,1
3245,82,-0.789222,-0.011946,0.030938,-0.000829,1,1
3243,82,-0.732122,-0.002164,0.099964,-0.033157,1,1
3257,82,-0.683408,0.030428,0.002265,-0.038310,1,1
3255,82,-0.747949,-0.083191,0.136489,-0.020308,1,1
3269,82,-0.695104,0.000131,-0.034909,0.237898,1,1
3259,82,-0.657948,-0.031029,-0.002840,0.000727,1,1
3262,82,-0.675835,-0.107769,-0.129364,0.231420,1,1
3287,83,-0.657199,-0.127779,0.185644,0.099717,1,1
3295,83,-0.722794,0.039024,0.100788,0.001854,1,1
3296,83,-0.744933,-0.023930,0.075542,0.074373,1,1
3316,83,-0.757317,-0.020042,-0.085238,0.232552,1,1
3299,83,-0.771208,0.079093,0.195049,-0.015769,1,1
3309,83,-0.769653,-0.149924,-0.075196,0.335862,0,1
3315,83,-0.705089,-0.047974,-0.030034,0.232449,1,1
3292,83,-0.718110,-0.044188,0.025842,-0.027018,1,1
3312,83,-0.664612,-0.081763,-0.052995,0.214509,1,1
3319,83,-0.723878,-0.122191,-0.111975,0.170329,1,1
3283,83,-0.694475,-0.000417,0.057495,0.035145,1,1
3280,83,-0.776286,-0.029512,-0.000592,-0.045831,1,1
3282,83,-0.710549,0.039316,0.020285,0.112654,1,1
3301,83,-0.709815,-0.110242,-0.050471,0.202032,1,1
3310,83,-0.732373,-0.134383,-0.017313,0.217496,1,1
3317,83,-0.727985,-0.008720,-0.121120,0.189784,1,1
3294,83,-0.675778,-0.002295,-0.001391,-0.015284,1,1
3302,83,-0.652786,0.012329,-0.115035,0.259615,1,1
3281,83,-0.733742,-0.061007,0.051978,-0.021288,1,1
3307,83,-0.754611,-0.065231,-0.094787,0.161470,1,1
3306,83,-0.800639,-0.100729,-0.054244,0.194534,1,1
3286,83,-0.729429,0.011321,0.094526,0.035751,1,1
3311,83,-0.792580,-0.109197,-0.012050,0.194725,1,1
3308,83,-0.786542,-0.094496,-0.054827,0.204315,1,1
3284,83,-0.675236,0.075888,0.083838,-0.011490,1,1
3318,83,-0.701225,-0.112396,-0.082878,0.239307,1,1
3290,83,-0.726994,-0.037782,0.084590,0.037319,1,1
3304,83,-0.769251,-0.057542,-0.144922,0.248348,1,1
3291,83,-0.722834,-0.023582,0.173914,0.005854,1,1
3289,83,-0.802930,0.049243,0.068684,0.074781,1,1
3303,83,-0.770377,-0.065495,-0.068306,0.231597,1,1
3305,83,-0.730791,-0.122009,-0.160875,0.299604,1,1
3293,83,-0.766032,0.037271,0.073524,0.047385,1,1
3297,83,-0.627115,-0.093459,0.113235,0.102959,1,1
3314,83,-0.768724,-0.055441,-0.179466,0.275491,1,1
3300,83,-0.758884,-0.085237,-0.115511,0.143743,1,1
3313,83,-0.847800,-0.090273,-0.042431,0.181525,0,1
3288,83,-0.691026,0.007301,0.091328,-0.018805,1,1
3298,83,-0.785176,0.047443,0.005300,-0.022225,1,1
3285,83,-0.773063,-0.081257,0.046870,0.019033,1,1
3353,84,-0.771587,-0.045807,-0.063339,0.213304,1,1
3358,84,-0.676746,-0.044079,-0.084812,0.213964,1,1
3344,84,-0.749086,-0.062032,-0.122306,0.198307,1,1
3326,84,-0.763538,0.043748,0.091317,0.014184,1,1
3323,84,-0.660126,0.015462,0.088349,-0.055301,1,1
3352,84,-0.699550,0.001602,-0.041584,0.129326,1,1
3354,84,-0.657905,-0.099975,-0.106972,0.205857,1,1
3355,84,-0.803783,-0.045151,-0.106962,0.230566,1,1
3333,84,-0.754381,-0.027507,0.085246,0.042476,1,1
3329,84,-0.755712,-0.024037,0.075357,-0.000159,1,1
3349,84,-0.764775,-0.105814,-0.083717,0.262255,1,1
3347,84,-0.721162,-0.121548,-0.128522,0.173560,1,1
3340,84,-0.768114,-0.135109,-0.097713,0.258904,1,1
3348,84,-0.687450,0.029932,-0.044736,0.168519,1,1
3359,84,-0.746940,-0.112389,-0.079846,0.201216,1,1
3339,84,-0.707868,-0.065620,0.036052,0.111539,1,1
3327,84,-0.652084,-0.006397,0.109205,-0.022588,1,1
3351,84,-0.691500,-0.136971,-0.140720,0.267418,1,1
3357,84,-0.685761,-0.058238,-0.129978,0.280132,1,1
3325,84,-0.674074,0.002968,0.063334,-0.051072,1,1
3336,84,-0.665643,0.020132,0.103824,0.102992,1,1
3337,84,-0.712256,-0.040454,0.040222,-0.034400,1,1
3350,84,-0.782688,-0.050196,-0.098281,0.150148,1,1
3320,84,-0.720234,-0.022711,0.087427,-0.026205,1,1
3335,84,-0.682027,-0.027574,0.091854,0.050474,1,1
3341,84,-0.766199,0.003619,-0.106209,0.207674,1,1
3345,84,-0.709574,-0.009301,-0.124328,0.257684,1,1
3343,84,-0.662096,-0.025455,0.023408,0.199493,1,1
3324,84,-0.754773,0.019734,-0.023387,0.010921,1,1
3321,84,-0.809747,-0.124196,0.076610,0.023523,1,1
3328,84,-0.657011,-0.044570,0.025848,-0.070315,1,1
3342,84,-0.653852,-0.079038,-0.100636,0.289196,1,1
3334,84,-0.647886,-0.047071,0.072644,-0.073718,1,1
3346,84,-0.803113,-0.018825,-0.127308,0.165836,1,1
3332,84,-0.706987,0.045962,0.162011,-0.052889,1,1
3338,84,-0.767900,0.023245,-0.020583,-0.006009,1,1
3331,84,-0.702775,0.010333,-0.002611,-0.011061,1,1
3356,84,-0.756981,-0.052318,-0.094727,0.243422,1,1
3322,84,-0.739149,-0.010667,0.121180,0.047059,1,1
3330,84,-0.619957,-0.022184,0.141021,0.001363,1,1
3394,85,-0.735649,-0.012481,-0.061944,0.295525,1,1
3376,85,-0.733300,-0.023848,0.013785,-0.019165,1,1
3383,85,-0.716247,-0.061951,-0.098381,0.255173,1,1
3373,85,-0.711175,-0.023497,0.051784,-0.004119,1,1
3375,85,-0.694312,0.026359,0.016156,-0.015717,1,1
3384,85,-0.767218,0.002086,-0.167396,0.203183,1,1
3377,85,-0.711971,-0.187694,0.042420,-0.007268,1,1
3362,85,-0.732426,0.068482,0.058181,-0.015079,1,1
3361,85,-0.735030,-0.040664,0.153579,-0.062463,1,1
3379,85,-0.730930,0.002315,0.106795,0.002539,1,1
3367,85,-0.832067,-0.007994,0.142013,-0.090835,1,1
3397,85,-0.738466,-0.086973,-0.067351,0.318229,1,1
3371,85,-0.614779,-0.031140,0.101662,0.006859,1,1
3399,85,-0.652336,-0.075582,-0.048390,0.214088,1,1
3372,85,-0.778624,-0.084388,0.059600,-0.077783,1,1
3391,85,-0.789755,-0.061584,-0.100990,0.249620,1,1
3385,85,-0.691965,0.014924,-0.095899,0.158988,1,1
3396,85,-0.802532,-0.004344,-0.060166,0.239195,1,1
3369,85,-0.716878,-0.000394,0.020558,-0.061873,1,1
3393,85,-0.766682,-0.047310,-0.111520,0.173607,1,1
3360,85,-0.807575,-0.002172,-0.021256,0.003741,1,1
3365,85,-0.707227,0.000360,-0.024717,-0.023607,1,1
3370,85,-0.719485,0.045937,0.024752,-0.012391,1,1
3390,85,-0.721626,-0.053902,-0.107546,0.321560,1,1
3363,85,-0.652590,-0.065839,0.133899,0.070413,1,1
3378,85,-0.645774,-0.025107,0.105152,-0.070768,1,1
3380,85,-0.795012,-0.051419,-0.058466,0.126743,1,1
3387,85,-0.663610,-0.036771,-0.018735,0.272566,1,1
3366,85,-0.744062,0.068799,0.118218,-0.077580,1,1
3398,85,-0.766063,-0.006516,0.012587,0.276560,1,1
3388,85,-0.698831,-0.059704,-0.039519,0.188962,1,1
3386,85,-0.737608,-0.047013,-0.076511,0.171900,1,1
3382,85,-0.792804,-0.098313,0.024078,0.222528,1,1
3389,85,-0.679237,-0.094648,-0.130387,0.193774,1,1
3392,85,-0.764309,-0.026280,-0.042059,0.130783,1,1
3368,85,-0.755071,0.034781,0.115113,0.047515,1,1
3364,85,-0.750335,-0.058520,0.041166,-0.027894,1,1
3381,85,-0.804305,-0.048434,-0.050487,0.193037,1,1
3395,85,-0.683567,-0.064008,-0.140631,0.176001,1,1
3374,85,-0.671147,0.054878,0.096497,-0.018576,1,1
3428,86,-0.653118,0.019942,-0.079842,0.245738,1,1
3438,86,-0.733268,-0.040705,-0.219153,0.250643,1,1
3404,86,-0.737429,0.028954,-0.034893,-0.061594,1,1
3432,86,-0.721876,-0.062789,0.004922,0.230808,1,1
3422,86,-0.728472,-0.058079,-0.079563,0.228526,1,1
3410,86,-0.688900,0.071360,0.019349,0.036540,1,1
3425,86,-0.843435,-0.084085,-0.098623,0.139589,1,1
3411,86,-0.715543,-0.055027,0.087708,0.001157,1,1
3412,86,-0.796631,0.034708,-0.001212,-0.123417,1,1
3402,86,-0.667058,-0.076247,0.110421,-0.042451,1,1
3439,86,-0.766159,-0.051680,-0.073684,0.265938,1,1
3421,86,-0.734859,-0.075919,-0.015407,0.137771,1,1
3434,86,-0.732200,-0.137423,-0.067845,0.224443,1,1
3427,86,-0.698832,-0.093502,-0.047865,0.188200,1,1
3417,86,-0.739884,-0.001727,0.097173,-0.096592,1,1
3415,86,-0.687690,0.011554,0.058203,0.005637,1,1
3436,86,-0.723476,-0.103790,-0.106473,0.285639,1,1
3414,86,-0.760574,-0.030599,0.143523,-0.022516,1,1
3420,86,-0.731816,-0.127421,-0.112679,0.265262,1,1
3431,86,-0.765129,0.016353,-0.117768,0.218930,1,1
3405,86,-0.655632,-0.045932,0.156584,0.058941,1,1
3409,86,-0.782290,-0.034474,0.072221,-0.041040,1,1
3416,86,-0.750968,-0.024300,0.031653,-0.019405,1,1
3406,86,-0.671379,-0.064665,0.068250,-0.139385,1,1
3430,86,-0.741154,-0.169645,-0.087846,0.166245,0,1
3423,86,-0.596872,0.002274,-0.126599,0.168334,1,1
3424,86,-0.820443,-0.009654,-0.087113,0.267581,1,1
3437,86,-0.809443,-0.051675,-0.180230,0.243899,1,1
3419,86,-0.696803,0.016088,-0.048400,0.010272,1,1
3435,86,-0.701865,-0.000290,-0.152210,0.219102,1,1
3418,86,-0.727678,-0.020621,0.085628,-0.028460,1,1
3400,86,-0.644898,-0.016647,0.096166,-0.050087,1,1
3426,86,-0.814033,-0.145267,-0.102536,0.212628,0,1
3401,86,-0.737596,0.021824,0.062351,-0.014160,1,1
3408,86,-0.611102,0.051658,0.014659,-0.015828,1,0
3407,86,-0.787261,-0.002410,0.058887,-0.036126,1,1
3403,86,-0.749218,0.049340,-0.005268,-0.078049,1,1
3429,86,-0.753135,-0.073535,-0.089619,0.159390,1,1
3433,86,-0.751892,-0.029049,-0.093707,0.204298,1,1
3413,86,-0.723902,0.049952,0.112676,0.030272,1,1
3479,87,-0.816154,-0.046001,-0.097174,0.207871,1,1
3461,87,-0.714137,-0.067116,-0.119027,0.209828,1,1
3471,87,-0.661911,-0.044229,-0.127748,0.222192,1,1
3460,87,-0.695509,-0.028861,-0.127537,0.206379,1,1
3445,87,-0.709551,-0.078408,0.023763,0.034586,1,1
3475,87,-0.713896,-0.215814,-0.071896,0.199671,0,1
3455,87,-0.737066,0.029486,0.081835,-0.019432,1,1
3446,87,-0.686511,-0.015387,0.080208,-0.053957,1,1
3468,87,-0.703567,-0.014906,-0.014731,0.166454,1,1
3441,87,-0.705501,0.008171,0.148879,0.034111,1,1
3472,87,-0.742522,-0.020016,-0.101868,0.152962,1,1
3476,87,-0.627514,-0.147195,-0.066928,0.232967,0,1
3444,87,-0.755036,0.078551,0.071884,-0.044836,1,1
3457,87,-0.734110,0.005425,0.024660,0.025992,1,1
3442,87,-0.699799,-0.026633,0.086265,-0.032748,1,1
3466,87,-0.652140,-0.045469,-0.053771,0.190931,1,1
3467,87,-0.662105,0.035389,-0.080314,0.189377,1,1
3450,87,-0.677549,0.029076,0.153535,-0.055641,1,1
3465,87,-0.712567,-0.029002,-0.141321,0.167024,1,1
3454,87,-0.721590,0.074494,0.152051,-0.117933,1,1
3473,87,-0.754585,-0.031621,-0.181543,0.234833,1,1
3456,87,-0.755965,0.031226,0.085460,-0.085634,1,1
3462,87,-0.680768,-0.085811,-0.056797,0.139324,1,1
3469,87,-0.681155,-0.028745,-0.120691,0.123122,1,1
3449,87,-0.732989,-0.073646,0.135484,0.037582,1,1
3440,87,-0.686897,-0.051134,0.074823,0.004980,1,1
3470,87,-0.754189,-0.021049,-0.054993,0.191664,1,1
3464,87,-0.813175,-0.140683,-0.072500,0.195818,0,1
3448,87,-0.695357,-0.027300,0.145966,-0.098388,1,1
3443,87,-0.728813,-0.048134,0.052100,-0.097669,1,1
3478,87,-0.716561,0.057177,-0.096249,0.226058,1,1
3459,87,-0.693587,0.007197,-0.024150,0.073762,1,1
3463,87,-0.662741,-0.034977,-0.098913,0.241803,1,1
3452,87,-0.746350,-0.066634,0.157971,0.056363,1,1
3474,87,-0.847494,-0.050866,-0.091042,0.116470,1,1
3477,87,-0.821824,0.011530,-0.155342,0.222931,1,1
3453,87,-0.705453,0.072468,0.028117,-0.022346,1,1
3458,87,-0.693985,0.042304,0.011553,0.048586,1,1
3447,87,-0.757624,-0.073427,0.068652,-0.049431,1,1
3451,87,-0.705133,0.050007,0.103693,-0.028201,1,1
3499,88,-0.823665,-0.038171,0.063279,-0.037975,1,1
3480,88,-0.765119,0.031112,0.001907,-0.016181,1,1
3516,88,-0.745916,-0.083728,-0.141589,0.196419,1,1
3509,88,-0.821063,-0.081349,-0.147574,0.202064,1,1
3517,88,-0.742668,-0.077851,-0.086589,0.193347,1,1
3490,88,-0.736227,0.013909,0.132440,-0.063639,1,1
3508,88,-0.723007,-0.136654,-0.163621,0.234130,1,1
3506,88,-0.658040,-0.098983,-0.009192,0.221282,1,1
3488,88,-0.669304,-0.042513,0.075588,0.044159,1,1
3487,88,-0.729313,-0.030463,0.056486,-0.052159,1,1
3502,88,-0.733178,-0.038097,0.006328,0.127099,1,1
3505,88,-0.704737,0.018921,-0.122481,0.075169,1,1
3485,88,-0.718797,0.060172,0.138352,-0.050541,1,1
3489,88,-0.615200,0.035882,0.060585,0.020214,1,1
3512,88,-0.770450,0.011630,-0.080540,0.147588,1,1
3503,88,-0.762566,-0.044531,-0.094831,0.164985,1,1
3500,88,-0.731117,-0.000091,-0.076982,0.256169,1,1
3518,88,-0.674912,-0.097085,-0.096245,0.233579,1,1
3514,88,-0.690329,-0.150013,-0.105290,0.204460,0,1
3492,88,-0.778079,0.008333,0.085722,-0.005895,1,1
3483,88,-0.718971,0.035369,0.109562,0.035498,1,1
3519,88,-0.690542,-0.122922,-0.073943,0.292712,1,1
3510,88,-0.695124,-0.015807,-0.042100,0.189228,1,1
3513,88,-0.861832,-0.111336,-0.089957,0.271890,0,1
3491,88,-0.709244,0.037283,-0.031203,0.013144,1,1
3481,88,-0.656821,-0.028412,0.012798,-0.066937,1,1
3495,88,-0.662323,0.000039,0.014996,0.118377,1,1
3501,88,-0.639217,-0.093123,-0.081393,0.180016,1,1
3498,88,-0.640033,-0.001711,0.017911,0.055633,1,1
3493,88,-0.761486,-0.012360,0.004891,0.030913,1,1
3507,88,-0.745665,-0.033140,-0.123105,0.200943,1,1
3484,88,-0.772789,0.007805,0.069005,0.030948,1,1
3486,88,-0.679267,0.003287,-0.017952,-0.031910,1,1
3494,88,-0.696433,-0.118615,0.036333,0.098788,1,1
3515,88,-0.694148,0.009562,-0.117057,0.160038,1,1
3496,88,-0.762028,0.115003,0.001802,-0.061769,1,0
3482,88,-0.730881,-0.005608,0.126405,0.009454,1,1
3504,88,-0.713876,-0.085720,-0.011035,0.254212,1,1
3511,88,-0.669875,0.004421,-0.090717,0.208078,1,1
3497,88,-0.683520,-0.006827,0.128562,0.031097,1,1
3527,89,-0.661690,-0.098373,-0.026760,0.017629,1,1
3556,89,-0.672420,-0.077732,-0.056666,0.204873,1,1
3554,89,-0.742821,-0.134089,-0.071470,0.258482,1,1
3555,89,-0.704329,-0.022287,-0.196277,0.302255,1,1
3546,89,-0.746773,0.022145,-0.044881,0.205420,1,1
3552,89,-0.746651,-0.096301,-0.027740,0.289744,1,1
3558,89,-0.766417,-0.050758,-0.117303,0.229672,1,1
3525,89,-0.702674,-0.046887,0.144386,0.024305,1,1
3541,89,-0.689034,-0.036604,-0.177467,0.249916,1,1
3523,89,-0.801745,0.039332,0.032622,-0.071065,1,1
3536,89,-0.752976,0.005195,0.011614,-0.026616,1,1
3531,89,-0.780205,0.027530,-0.003725,-0.016639,1,1
3537,89,-0.757707,-0.102509,0.065438,-0.027862,1,1
3520,89,-0.677640,0.007644,0.049781,0.022423,1,1
3543,89,-0.764166,-0.138521,-0.139295,0.234810,1,1
3542,89,-0.845592,-0.153105,-0.054604,0.234791,0,1
3540,89,-0.733112,-0.208302,-0.165866,0.190717,0,1
3548,89,-0.746337,-0.006385,-0.011090,0.275956,1,1
3538,89,-0.700965,-0.045886,0.099739,0.162850,1,1
3535,89,-0.698451,0.012772,0.093758,0.009129,1,1
3524,89,-0.678927,0.023934,0.050417,-0.090396,1,1
3526,89,-0.639132,-0.019134,0.100002,-0.048369,1,1
3530,89,-0.748129,-0.048283,0.080893,-0.008556,1,1
3521,89,-0.743965,-0.005602,0.010773,-0.005601,1,1
3534,89,-0.720922,-0.006771,-0.023957,-0.030903,1,1
3553,89,-0.709737,-0.074482,-0.085850,0.239826,1,1
3547,89,-0.806430,-0.064943,-0.028056,0.309715,1,1
3557,89,-0.723866,-0.103538,-0.126287,0.184984,1,1
3551,89,-0.675967,-0.078032,-0.147592,0.248692,1,1
3532,89,-0.720209,-0.061700,0.076691,0.096027,1,1
3544,89,-0.730437,-0.054985,-0.083139,0.280327,1,1
3529,89,-0.609998,0.018684,0.072467,-0.009220,1,1
3550,89,-0.729365,-0.073593,-0.067269,0.299319,1,1
3559,89,-0.715701,0.085705,-0.155482,0.202400,1,1
3539,89,-0.775728,-0.007101,0.058524,0.082862,1,1
3533,89,-0.748753,-0.102802,0.026843,-0.036620,1,1
3549,89,-0.760403,-0.046552,-0.057426,0.219229,1,1
3545,89,-0.783964,-0.038221,-0.115137,0.211141,1,1
3528,89,-0.775750,-0.110565,0.046464,-0.007012,1,1
3522,89,-0.779473,-0.016743,0.075480,-0.041005,1,1
3577,90,-0.787277,0.045476,0.059414,0.014342,1,1
3582,90,-0.723961,-0.155748,-0.068549,0.281352,0,1
3586,90,-0.751893,-0.061623,-0.100068,0.264168,1,1
3570,90,-0.649740,-0.076511,0.008946,0.015103,1,1
3575,90,-0.682774,0.028452,-0.018332,0.054495,1,1
3561,90,-0.783669,-0.007575,0.110374,0.004086,1,1
3587,90,-0.777889,0.002538,-0.052564,0.159574,1,1
3560,90,-0.719998,-0.109995,0.071082,-0.053155,1,1
3585,90,-0.755584,-0.037323,-0.180618,0.185407,1,1
3576,90,-0.714266,0.050678,0.015117,-0.042207,1,1
3562,90,-0.704238,0.046037,0.160987,-0.056110,1,1
3584,90,-0.725941,-0.044293,0.006068,0.248808,1,1
3592,90,-0.725335,-0.099625,-0.064371,0.170040,1,1
3563,90,-0.760461,0.021108,0.022071,-0.066338,1,1
3590,90,-0.671026,0.003703,-0.109815,0.182032,1,1
3566,90,-0.748988,0.021772,0.111964,0.046680,1,1
3578,90,-0.768913,-0.023867,0.090325,0.065668,1,1
3567,90,-0.673353,0.009453,0.108412,-0.114017,1,1
3595,90,-0.737073,-0.119598,-0.101435,0.191067,1,1
3564,90,-0.773133,0.031264,0.140182,0.005492,1,1
3594,90,-0.589344,-0.040007,0.020348,0.218727,1,1
3569,90,-0.749806,0.033213,0.020960,-0.023535,1,1
3599,90,-0.749039,-0.080579,-0.080589,0.267207,1,1
3583,90,-0.764204,-0.089360,-0.076059,0.253771,1,1
3574,90,-0.692470,-0.068310,0.085695,0.005295,1,1
3591,90,-0.774878,-0.044175,0.029710,0.209590,1,1
3568,90,-0.688512,0.007490,0.020455,0.126876,1,1
3596,90,-0.704102,0.010637,-0.116960,0.252491,1,1
3571,90,-0.775152,0.035031,0.075881,-0.168278,1,1
3580,90,-0.744343,-0.143310,-0.103976,0.196884,1,1
3589,90,-0.675945,-0.069064,-0.068383,0.137221,1,1
3579,90,-0.719400,-0.011320,0.056305,0.044649,1,1
3597,90,-0.742603,-0.071093,-0.125131,0.242936,1,1
3581,90,-0.684372,-0.098697,-0.008356,0.171822,1,1
3588,90,-0.677765,-0.086201,-0.115575,0.167299,1,1
3598,90,-0.704451,-0.089269,-0.085355,0.130359,1,1
3565,90,-0.660125,-0.019852,0.096207,0.047412,1,1
3572,90,-0.698392,0.036658,0.081769,-0.008195,1,1
3593,90,-0.769452,-0.044460,-0.159684,0.239841,1,1
3573,90,-0.676461,0.050657,0.017776,0.033664,1,1
3637,91,-0.692092,-0.061087,-0.146881,0.186883,1,1
3633,91,-0.760401,-0.116289,-0.104487,0.225264,1,1
3606,91,-0.671470,-0.006173,0.064363,-0.003461,1,1
3618,91,-0.725218,0.034273,-0.079139,-0.140009,1,1
3604,91,-0.792948,0.061767,0.035123,-0.082949,1,1
3600,91,-0.757868,-0.005592,-0.037590,0.045293,1,1
3628,91,-0.720820,-0.066228,-0.019091,0.175373,1,1
3608,91,-0.682733,-0.028394,0.077012,-0.020748,1,1
3622,91,-0.712153,0.013050,-0.090905,0.120019,1,1
3601,91,-0.801641,-0.059027,0.051422,-0.035943,1,1
3607,91,-0.738081,-0.056801,0.129131,-0.016659,1,1
3635,91,-0.688457,-0.154626,-0.125053,0.249750,0,1
3615,91,-0.781800,-0.039684,0.050167,0.003054,1,1
3610,91,-0.661440,-0.017601,0.083474,-0.100651,1,1
3630,91,-0.715215,-0.165845,-0.058403,0.297775,0,1
3603,91,-0.684576,-0.021363,0.027979,-0.044685,1,1
3634,91,-0.689769,-0.045436,-0.016482,0.151058,1,1
3629,91,-0.725763,-0.101019,-0.239490,0.243451,1,1
3602,91,-0.807935,0.009407,0.090408,-0.051908,1,1
3631,91,-0.757624,0.062382,-0.103939,0.153770,1,1
3639,91,-0.764585,-0.078459,-0.126986,0.247666,1,1
3609,91,-0.731052,0.006747,0.107639,-0.004504,1,1
3624,91,-0.722139,-0.149870,-0.031873,0.283960,1,1
3617,91,-0.769952,0.037956,0.048648,0.003600,1,1
3620,91,-0.731298,-0.001100,0.016466,0.258736,1,1
3627,91,-0.694767,-0.158625,-0.022652,0.223731,0,1
3612,91,-0.734087,0.042083,0.073671,0.045724,1,1
3611,91,-0.697361,0.020674,0.100097,0.019601,1,1
3626,91,-0.774706,-0.030436,-0.035791,0.185771,1,1
3621,91,-0.707615,-0.054609,-0.034673,0.233913,1,1
3616,91,-0.770821,0.048413,0.058147,-0.004866,1,1
3614,91,-0.655911,0.003019,0.090838,-0.005624,1,1
3613,91,-0.678237,0.136992,0.026976,-0.066681,1,0
3619,91,-0.634341,0.004257,0.006748,-0.058250,1,1
3625,91,-0.657876,-0.025982,-0.081745,0.157341,1,1
3632,91,-0.755285,0.043670,-0.119555,0.180061,1,1
3623,91,-0.741442,-0.019918,-0.151183,0.147340,1,1
3605,91,-0.682769,0.005855,0.112033,-0.027756,1,1
3636,91,-0.694076,-0.085023,-0.123623,0.246298,1,1
3638,91,-0.733481,-0.007515,-0.027071,0.204815,1,1
3664,92,-0.707129,-0.042054,-0.104448,0.217208,1,1
3647,92,-0.702811,-0.037964,0.067714,-0.079598,1,1
3650,92,-0.739145,0.029996,0.062548,-0.006794,1,1
3652,92,-0.673586,-0.020875,0.116579,-0.008016,1,1
3672,92,-0.884291,0.004402,-0.124733,0.143239,0,1
3673,92,-0.669240,-0.098259,-0.153452,0.303528,1,1
3644,92,-0.783079,-0.021438,-0.019241,0.002843,1,1
3656,92,-0.709808,0.030068,0.061220,-0.035534,1,1
3670,92,-0.799019,-0.079846,0.005518,0.209805,1,1
3671,92,-0.755139,-0.055624,-0.169863,0.214177,1,1
3677,92,-0.714462,-0.076260,-0.026068,0.268701,1,1
3648,92,-0.750507,0.077118,0.070837,0.052299,1,1
3669,92,-0.704117,-0.062726,-0.115796,0.222179,1,1
3646,92,-0.588641,-0.085855,0.049638,-0.057472,1,1
3662,92,-0.713831,-0.049547,-0.182580,0.211694,1,1
3649,92,-0.764739,-0.045975,0.086244,-0.036149,1,1
3679,92,-0.757595,0.003319,-0.084627,0.168154,1,1
3651,92,-0.676184,0.016493,0.059525,-0.113300,1,1
3658,92,-0.751199,-0.078549,0.063301,-0.005764,1,1
3660,92,-0.739703,0.049962,-0.126197,0.281957,1,1
3653,92,-0.646155,0.062792,0.142617,0.003101,1,1
3678,92,-0.700591,-0.069122,-0.134481,0.214013,1,1
3676,92,-0.668876,-0.104176,-0.059514,0.155912,1,1
3641,92,-0.739232,0.025181,0.133206,-0.093086,1,1
3642,92,-0.695184,-0.013148,-0.012984,0.011368,1,1
3665,92,-0.714754,-0.033880,-0.021321,0.199744,1,1
3643,92,-0.721520,-0.050934,0.045513,0.051335,1,1
3657,92,-0.661307,-0.028273,0.035081,-0.035009,1,1
3661,92,-0.772896,-0.056820,-0.043598,0.210106,1,1
3674,92,-0.716939,-0.043712,-0.102348,0.125653,1,1
3655,92,-0.760807,-0.010460,0.129641,-0.034532,1,1
3666,92,-0.686930,-0.108461,-0.097558,0.189867,1,1
3645,92,-0.772238,0.004348,0.100199,-0.118666,1,1
3663,92,-0.703413,-0.019398,-0.011753,0.264226,1,1
3667,92,-0.782353,-0.102222,-0.081867,0.183785,1,1
3654,92,-0.761546,0.069192,0.123956,0.002656,1,1
3675,92,-0.739800,-0.026162,-0.151018,0.132583,1,1
3668,92,-0.731142,-0.053498,-0.009989,0.181063,1,1
3659,92,-0.759005,-0.030404,0.050934,-0.002624,1,1
3640,92,-0.724530,0.009548,0.019652,0.018591,1,1
3714,93,-0.716046,-0.123414,-0.065708,0.181438,1,1
3690,93,-0.733412,0.029586,0.122484,-0.120549,1,1
3691,93,-0.729913,-0.022853,0.113173,-0.081679,1,1
3703,93,-0.724771,-0.010146,-0.072430,0.188811,1,1
3713,93,-0.654245,-0.015572,-0.134573,0.240142,1,1
3701,93,-0.744683,-0.088451,-0.172129,0.269753,1,1
3694,93,-0.744795,-0.015419,0.056263,-0.032062,1,1
3686,93,-0.775334,0.026303,0.062795,0.022167,1,1
3683,93,-0.712193,-0.019807,0.102002,-0.003318,1,1
3705,93,-0.677509,-0.091856,-0.035469,0.243360,1,1
3710,93,-0.737476,-0.105965,-0.106360,0.138239,1,1
3687,93,-0.682866,0.028184,0.151196,-0.055335,1,1
3689,93,-0.685632,0.073384,0.016422,0.036059,1,1
3693,93,-0.703621,-0.005566,-0.008835,0.058717,1,1
3700,93,-0.722348,-0.077689,-0.182928,0.228591,1,1
3685,93,-0.797051,0.047605,0.045233,-0.039753,1,1
3702,93,-0.748845,-0.041558,-0.068405,0.201237,1,1
3708,93,-0.758096,-0.150248,-0.038063,0.210054,0,1
3706,93,-0.763482,-0.020424,-0.122002,0.154145,1,1
3717,93,-0.720359,-0.104960,-0.067474,0.298228,1,1
3697,93,-0.701722,0.053419,0.095063,-0.106184,1,1
3719,93,-0.706266,-0.087529,-0.135747,0.259825,1,1
3682,93,-0.721742,-0.040208,0.039185,-0.060937,1,1
3695,93,-0.734810,0.093119,0.080946,-0.028797,1,0
3688,93,-0.728955,-0.007950,0.033347,0.015940,1,1
3696,93,-0.620853,-0.083481,0.115024,0.081235,1,1
3698,93,-0.702842,-0.018248,0.105281,0.039215,1,1
3715,93,-0.766170,-0.049801,-0.117787,0.161015,1,1
3711,93,-0.688330,-0.001643,-0.076107,0.234633,1,1
3718,93,-0.702007,0.002158,-0.106741,0.249609,1,1
3684,93,-0.581167,0.009617,0.089995,-0.032486,1,0
3709,93,-0.751518,0.046883,-0.065533,0.196178,1,1
3707,93,-0.752858,-0.053662,-0.109907,0.303493,1,1
3681,93,-0.736096,-0.040478,0.178928,-0.020682,1,1
3699,93,-0.712868,0.016275,-0.007014,-0.051778,1,1
3716,93,-0.705029,0.019139,-0.115471,0.139174,1,1
3680,93,-0.688275,-0.023080,0.003667,0.097722,1,1
3712,93,-0.740049,-0.084993,-0.048617,0.224916,1,1
3704,93,-0.782421,-0.101996,-0.063408,0.199199,1,1
3692,93,-0.766812,0.027909,0.066536,-0.000565,1,1
3749,94,-0.782349,-0.150476,-0.095212,0.210338,0,1
3746,94,-0.682198,-0.105986,-0.052806,0.229410,1,1
3720,94,-0.732801,0.056052,0.060010,-0.010440,1,1
3734,94,-0.709720,-0.042381,0.021227,-0.001941,1,1
3723,94,-0.806270,0.070743,0.125870,-0.138135,1,0
3738,94,-0.843038,0.041759,0.007712,-0.030068,1,0
3753,94,-0.699224,-0.050876,-0.102165,0.298192,1,1
3756,94,-0.648662,-0.203555,-0.033472,0.221944,0,1
3726,94,-0.735356,0.033882,0.201976,0.017847,1,1
3754,94,-0.686646,-0.061998,-0.093630,0.239851,1,1
3732,94,-0.692694,0.013759,0.039526,-0.020339,1,1
3743,94,-0.720560,0.068197,0.007378,0.127915,1,1
3735,94,-0.732059,0.003703,0.053269,-0.090447,1,1
3741,94,-0.779775,-0.093918,-0.154564,0.197291,1,1
3752,94,-0.711007,-0.035312,0.012510,0.172729,1,1
3736,94,-0.834484,-0.036121,0.131716,0.105849,1,1
3757,94,-0.751834,-0.179518,-0.119303,0.235059,0,1
3733,94,-0.611492,0.000973,0.064385,-0.049625,1,1
3751,94,-0.687574,-0.003394,-0.074227,0.271325,1,1
3730,94,-0.771983,0.022430,0.130878,-0.074579,1,1
3759,94,-0.828172,-0.060262,-0.124605,0.235600,1,1
3725,94,-0.826683,-0.002543,0.004996,-0.054731,1,1
3750,94,-0.854828,0.044501,-0.118278,0.159090,1,1
3722,94,-0.749249,-0.051138,0.002648,-0.038337,1,1
3724,94,-0.645465,0.022337,0.100705,0.066841,1,1
3758,94,-0.694312,-0.031374,-0.025996,0.239738,1,1
3755,94,-0.747571,-0.055956,-0.083479,0.208707,1,1
3748,94,-0.720922,-0.033106,-0.119831,0.255851,1,1
3737,94,-0.798241,-0.053064,0.040517,0.016198,1,1
3728,94,-0.738768,0.011820,0.091829,-0.051565,1,1
3721,94,-0.700266,0.073705,0.039754,-0.050370,1,1
3744,94,-0.690391,-0.026834,-0.070475,0.132098,1,1
3740,94,-0.708986,0.012334,-0.004010,0.209432,1,1
3747,94,-0.648300,-0.055809,-0.219867,0.278090,1,1
3739,94,-0.766569,0.062335,0.070771,-0.025629,1,1
3729,94,-0.816705,-0.029832,0.037146,0.012841,1,1
3727,94,-0.827109,0.060019,0.106596,0.039774,1,0
3742,94,-0.632098,-0.031825,-0.139170,0.229968,1,1
3745,94,-0.689491,-0.060960,-0.192675,0.154887,1,1
3731,94,-0.717010,-0.003134,0.079583,-0.095186,1,1
3780,95,-0.758081,-0.135393,0.002141,0.096022,1,1
3794,95,-0.715383,-0.111978,-0.091247,0.064845,1,1
3792,95,-0.736661,-0.016079,-0.054198,0.030587,1,1
3776,95,-0.652772,0.000113,0.017196,-0.046187,1,1
3774,95,-0.819717,-0.017717,-0.011591,-0.032415,1,1
3761,95,-0.703898,0.036560,0.049092,-0.034780,1,1
3773,95,-0.744402,-0.020646,0.028818,0.007467,1,1
3795,95,-0.703662,-0.088517,0.016317,0.091835,1,1
3784,95,-0.688250,-0.076930,-0.014001,0.000100,1,1
3790,95,-0.725498,-0.073062,-0.111052,0.025990,1,1
3791,95,-0.649597,-0.163153,0.039361,-0.029895,0,1
3770,95,-0.702324,0.050000,0.083800,0.126163,1,1
3798,95,-0.608958,-0.047426,0.002749,0.034666,1,1
3796,95,-0.651670,-0.010370,0.009888,-0.008459,1,1
3789,95,-0.724618,-0.046239,0.043955,0.069471,1,1
3781,95,-0.694091,-0.112430,0.049654,0.019981,1,1
3783,95,-0.772818,-0.027237,-0.053270,0.069580,1,1
3793,95,-0.725094,-0.022858,-0.045544,0.076666,1,1
3788,95,-0.677074,-0.101111,-0.068468,0.051221,1,1
3787,95,-0.796101,-0.059244,0.067608,0.079932,1,1
3765,95,-0.731442,0.022913,0.159066,-0.021175,1,1
3766,95,-0.697088,-0.016182,0.027940,-0.086381,1,1
3767,95,-0.763045,0.070652,0.116111,-0.012389,1,1
3768,95,-0.651246,-0.040442,0.017056,0.027912,1,1
3779,95,-0.676740,-0.016416,0.118174,-0.020840,1,1
3764,95,-0.645403,0.020742,-0.040692,-0.075756,1,1
3769,95,-0.629030,0.032009,0.079492,-0.006445,1,1
3797,95,-0.729594,-0.036888,-0.018311,0.008925,1,1
3777,95,-0.687931,-0.008304,0.084537,-0.004536,1,1
3778,95,-0.677022,0.000804,0.049800,-0.065766,1,1
3775,95,-0.718103,-0.000178,0.028391,-0.020206,1,1
3760,95,-0.812023,-0.055500,0.059202,-0.080580,1,1
3772,95,-0.633684,0.008810,0.061659,0.043608,1,1
3786,95,-0.747677,-0.081850,-0.164494,0.042139,1,1
3785,95,-0.768278,-0.103715,-0.070777,0.024923,1,1
3782,95,-0.711486,-0.117602,-0.008836,0.057881,1,1
3799,95,-0.722400,-0.148000,-0.054372,0.077625,1,1
3762,95,-0.667739,-0.007309,0.115256,0.049058,1,1
3763,95,-0.692178,0.012834,-0.010827,-0.005034,1,1
3771,95,-0.722151,0.070602,0.115854,-0.032873,1,1
3802,96,-0.700227,0.031970,0.030285,0.000707,1,1
3810,96,-0.761563,0.032052,0.138769,0.059818,1,1
3817,96,-0.670626,0.108662,0.043363,0.016082,1,0
3822,96,-0.740960,-0.095652,-0.082224,0.100451,1,1
3815,96,-0.659868,-0.006070,0.037758,-0.091262,1,1
3828,96,-0.852777,-0.047936,-0.067204,0.159122,1,1
3832,96,-0.618517,-0.053692,0.027556,0.085143,1,1
3818,96,-0.599894,0.045967,0.087363,0.030981,1,0
3805,96,-0.655067,-0.015503,-0.019663,0.028079,1,1
3833,96,-0.703788,-0.048565,-0.072776,0.083702,1,1
3837,96,-0.741276,-0.115403,-0.046192,0.039609,1,1
3826,96,-0.660712,-0.140508,-0.037974,0.061373,1,1
3835,96,-0.719757,-0.049970,0.030865,0.029217,1,1
3813,96,-0.774808,-0.079377,0.105577,-0.053765,1,1
3801,96,-0.831864,0.003130,0.016706,-0.010023,1,1
3830,96,-0.726518,-0.082729,0.069330,0.033427,1,1
3824,96,-0.728027,-0.039452,0.034861,0.159777,1,1
3819,96,-0.801776,0.064199,0.029931,-0.071244,1,1
3816,96,-0.735976,-0.028641,0.121361,-0.070551,1,1
3827,96,-0.645340,-0.076935,-0.069414,0.090545,1,1
3809,96,-0.619392,0.081125,0.073013,-0.000119,1,0
3839,96,-0.790575,-0.127201,-0.039801,0.110591,1,1
3821,96,-0.741583,-0.051592,-0.006749,0.026944,1,1
3806,96,-0.674001,-0.038757,0.176658,-0.016254,1,1
3831,96,-0.675755,0.022132,-0.048807,0.014288,1,1
3803,96,-0.792504,0.015606,0.037992,-0.021888,1,1
3834,96,-0.697783,-0.033086,0.044992,0.116773,1,1
3814,96,-0.678788,-0.043854,0.063493,0.007902,1,1
3811,96,-0.733729,0.026471,0.094729,-0.027135,1,1
3808,96,-0.722393,-0.012048,0.074060,0.010374,1,1
3812,96,-0.765634,-0.062140,-0.003768,-0.083353,1,1
3804,96,-0.750915,0.084043,0.065926,0.072667,1,1
3800,96,-0.673239,-0.044985,0.010515,-0.000976,1,1
3829,96,-0.740032,-0.009283,-0.053402,-0.015032,1,1
3825,96,-0.761436,0.008353,-0.006793,0.020666,1,1
3838,96,-0.570350,0.013831,-0.027422,0.047441,1,1
3823,96,-0.711364,-0.085425,-0.000944,0.017173,1,1
3807,96,-0.716525,0.055735,0.054481,-0.042502,1,1
3836,96,-0.758648,0.065183,-0.047030,0.079978,1,1
3820,96,-0.718304,-0.110604,-0.070270,0.041435,1,1
3876,97,-0.709766,-0.048762,-0.043387,0.093530,1,1
3854,97,-0.745735,0.038503,0.079566,0.003055,1,1
3859,97,-0.648703,-0.014217,0.075012,-0.048697,1,1
3877,97,-0.785504,-0.101014,0.124295,0.083583,1,1
3843,97,-0.747072,0.062181,0.132506,-0.043598,1,1
3849,97,-0.781628,-0.018392,0.121652,-0.056794,1,1
3869,97,-0.765330,-0.094982,-0.113286,0.074445,1,1
3841,97,-0.726664,-0.016413,0.070653,-0.007535,1,1
3874,97,-0.710549,-0.151274,-0.031046,0.050181,1,1
3852,97,-0.664823,-0.136713,0.109622,-0.068738,1,1
3872,97,-0.688430,-0.096044,0.045295,0.023493,1,1
3861,97,-0.728583,-0.090282,-0.089460,0.109678,1,1
3866,97,-0.691640,-0.094757,-0.054983,0.076605,1,1
3878,97,-0.699519,-0.181600,-0.114320,-0.006454,0,1
3847,97,-0.732226,0.035914,0.111148,0.012002,1,1
3862,97,-0.683788,-0.047514,-0.046412,0.058343,1,1
3860,97,-0.727470,-0.123693,-0.083597,0.040515,1,1
3851,97,-0.732264,-0.045308,-0.002396,0.019729,1,1
3844,97,-0.717747,0.002913,0.005849,-0.040951,1,1
3850,97,-0.715682,0.045222,0.026926,-0.109439,1,1
3855,97,-0.687512,-0.038672,0.064284,-0.082071,1,1
3867,97,-0.758466,-0.047234,-0.062735,-0.006178,1,1
3856,97,-0.776832,-0.063114,0.086103,-0.073603,1,1
3879,97,-0.710213,-0.094593,-0.080842,0.057006,1,1
3873,97,-0.720315,0.015015,-0.055468,-0.009163,1,1
3870,97,-0.747367,-0.107617,-0.033185,0.071959,1,1
3871,97,-0.724637,-0.047240,-0.009736,0.040254,1,1
3865,97,-0.784311,-0.023655,-0.094319,0.054938,1,1
3848,97,-0.721951,0.106483,0.107984,-0.073158,1,0
3863,97,-0.732176,0.029574,-0.018760,0.048062,1,1
3868,97,-0.698527,-0.061895,-0.019183,0.127472,1,1
3853,97,-0.718817,-0.061611,0.052778,0.016010,1,1
3845,97,-0.784372,-0.007607,0.098991,0.082786,1,1
3840,97,-0.557438,0.026488,0.098775,0.009164,1,0
3842,97,-0.751478,0.069609,0.050823,-0.012520,1,1
3875,97,-0.658761,-0.042694,0.038030,0.084539,1,1
3846,97,-0.700238,-0.005949,0.075552,0.076256,1,1
3864,97,-0.686938,0.016409,0.001371,0.157495,1,1
3857,97,-0.783696,-0.022590,0.018203,0.033669,1,1
3858,97,-0.666046,0.062833,0.089926,-0.029452,1,1
3898,98,-0.700217,-0.028355,0.004716,-0.061360,1,1
3910,98,-0.722330,-0.086028,-0.004361,-0.005788,1,1
3883,98,-0.780337,-0.006568,0.030283,0.007534,1,1
3895,98,-0.652337,0.035809,0.013143,-0.088663,1,1
3897,98,-0.653160,-0.005788,0.083476,-0.061454,1,1
3881,98,-0.732661,-0.036666,0.101894,-0.070724,1,1
3907,98,-0.740787,-0.083748,-0.021883,0.019952,1,1
3892,98,-0.709466,0.047814,0.027617,0.135389,1,1
3908,98,-0.729657,-0.039610,-0.016005,0.044644,1,1
3896,98,-0.618268,0.028734,0.056402,-0.006441,1,1
3901,98,-0.762173,-0.082433,0.034806,0.081768,1,1
3889,98,-0.785168,0.044863,0.086251,-0.099912,1,1
3880,98,-0.674178,-0.029289,-0.013243,-0.057055,1,1
3915,98,-0.754641,-0.029915,-0.116343,0.013530,1,1
3891,98,-0.777041,0.033585,0.097684,-0.029921,1,1
3904,98,-0.770033,-0.123398,-0.003682,0.098982,1,1
3886,98,-0.674124,0.043730,0.134913,0.010544,1,1
3913,98,-0.699144,-0.081747,-0.126201,0.011409,1,1
3885,98,-0.708455,-0.082310,0.084104,0.049097,1,1
3902,98,-0.728264,-0.011586,-0.014505,0.051657,1,1
3905,98,-0.804984,-0.068150,0.019722,0.076992,1,1
3916,98,-0.790313,-0.007046,-0.017554,0.055612,1,1
3887,98,-0.629611,0.032838,0.039113,-0.047570,1,1
3884,98,-0.753957,0.015572,0.052014,-0.106960,1,1
3882,98,-0.717109,0.037009,0.040422,0.054617,1,1
3911,98,-0.719465,-0.130587,-0.038941,0.075716,1,1
3914,98,-0.788954,-0.126386,0.016079,0.014897,1,1
3900,98,-0.696276,-0.045429,-0.017702,0.061588,1,1
3912,98,-0.686150,-0.063326,-0.097217,0.042667,1,1
3890,98,-0.804802,0.040602,0.033038,-0.114556,1,1
3893,98,-0.736866,0.023463,0.026687,0.032311,1,1
3903,98,-0.654624,-0.023178,-0.025702,0.100948,1,1
3917,98,-0.745639,-0.016997,-0.018801,0.009045,1,1
3919,98,-0.616709,-0.037063,0.053377,0.033826,1,1
3899,98,-0.748893,-0.009960,0.056173,0.010483,1,1
3888,98,-0.729525,-0.011735,-0.005048,0.013085,1,1
3894,98,-0.722112,-0.024815,0.068062,-0.067956,1,1
3909,98,-0.708969,0.001813,-0.001540,0.012985,1,1
3906,98,-0.624293,-0.120645,0.041888,0.039211,1,1
3918,98,-0.738406,-0.023497,-0.043937,0.150008,1,1
3922,99,-0.696902,-0.020259,-0.038796,-0.097666,1,1
3940,99,-0.719528,-0.154738,-0.111665,0.057601,0,1
3952,99,-0.666340,-0.093859,-0.061149,-0.018269,1,1
3945,99,-0.769613,0.008451,-0.023839,0.001067,1,1
3928,99,-0.647134,-0.073544,0.071917,-0.062552,1,1
3935,99,-0.752107,-0.026831,0.075997,-0.042056,1,1
3938,99,-0.765582,-0.091858,0.072503,-0.056854,1,1
3957,99,-0.670746,-0.025009,-0.101960,0.126510,1,1
3939,99,-0.689545,-0.014985,0.116967,-0.024819,1,1
3951,99,-0.729356,-0.095329,-0.178004,0.107604,1,1
3953,99,-0.692593,-0.057196,-0.039216,0.049805,1,1
3943,99,-0.823710,-0.032011,0.003498,0.052363,1,1
3950,99,-0.720186,0.054946,0.025751,0.090355,1,1
3959,99,-0.712987,-0.117005,0.028584,0.076251,1,1
3929,99,-0.745761,-0.058675,-0.038182,-0.080865,1,1
3946,99,-0.683861,-0.060365,-0.101576,0.014001,1,1
3931,99,-0.726515,-0.054100,0.067915,-0.040484,1,1
3944,99,-0.712004,-0.027215,-0.129968,-0.047725,1,1
3942,99,-0.667396,-0.066407,0.011094,-0.017323,1,1
3958,99,-0.750075,-0.117822,-0.088728,0.057223,1,1
3932,99,-0.762828,0.017318,0.045581,-0.034294,1,1
3924,99,-0.677118,0.037279,0.034848,-0.038970,1,1
3936,99,-0.757998,0.069148,0.094827,-0.018439,1,1
3956,99,-0.773951,-0.052094,-0.065969,0.021375,1,1
3921,99,-0.711390,0.020051,0.070996,-0.042596,1,1
3926,99,-0.799393,-0.005295,0.123305,-0.132097,1,1
3925,99,-0.778897,-0.019354,0.113169,-0.033184,1,1
3941,99,-0.615594,-0.047620,0.001236,0.075720,1,1
3955,99,-0.708765,-0.055932,-0.008021,0.026252,1,1
3937,99,-0.750712,-0.041175,0.067291,-0.099786,1,1
3920,99,-0.710485,0.049962,-0.058972,0.017178,1,1
3948,99,-0.726998,-0.119812,0.013971,-0.049153,1,1
3933,99,-0.755737,0.058032,0.036191,-0.084831,1,1
3949,99,-0.694220,-0.034202,0.067781,-0.033491,1,1
3947,99,-0.658793,-0.025070,0.043965,0.067738,1,1
3954,99,-0.731475,-0.074227,0.004297,0.085087,1,1
3927,99,-0.721706,-0.004057,0.067556,0.065871,1,1
3930,99,-0.710822,-0.030327,0.025235,-0.126517,1,1
3923,99,-0.736518,-0.065825,0.046071,-0.018196,1,1
3934,99,-0.625989,0.066386,0.068022,0.049811,1,0
3974,100,-0.684115,0.039572,0.030558,-0.013312,1,1
3998,100,-0.634099,-0.106396,-0.100554,0.059580,1,1
3966,100,-0.701514,-0.009198,0.070164,0.012446,1,1
3996,100,-0.748866,-0.048063,-0.045762,0.018413,1,1
3960,100,-0.735909,-0.030574,0.031438,0.037693,1,1
3989,100,-0.725324,-0.052843,0.073888,0.074242,1,1
3981,100,-0.748952,-0.060033,-0.046141,0.026245,1,1
3976,100,-0.796267,0.016748,0.024747,-0.068588,1,1
3973,100,-0.772233,-0.076257,0.057019,-0.034459,1,1
3962,100,-0.803598,0.006244,0.062334,0.061727,1,1
3963,100,-0.715007,-0.052316,0.018152,-0.075379,1,1
3972,100,-0.687131,-0.104999,0.062740,0.037547,1,1
3986,100,-0.692547,-0.049284,-0.043701,0.167172,1,1
3977,100,-0.777994,0.056878,0.033434,0.015772,1,1
3995,100,-0.775450,-0.089854,-0.067698,0.051326,1,1
3965,100,-0.689778,-0.078998,0.073222,-0.121942,1,1
3997,100,-0.822401,-0.047337,-0.104473,-0.022142,1,1
3961,100,-0.674901,-0.000910,0.026354,-0.066663,1,1
3979,100,-0.708600,-0.012005,0.113297,-0.046570,1,1
3985,100,-0.743073,-0.045180,-0.013765,0.029672,1,1
3970,100,-0.675315,-0.113764,0.046763,-0.075500,1,1
3980,100,-0.814077,-0.122011,0.036274,-0.025662,0,1
3978,100,-0.647017,0.010946,-0.007060,-0.009727,1,1
3988,100,-0.652452,-0.132209,0.002546,-0.043755,1,1
3992,100,-0.753021,0.040939,0.006535,0.000021,1,1
3971,100,-0.737054,-0.043696,0.021085,-0.061203,1,1
3964,100,-0.628188,0.085616,0.071501,0.016714,1,0
3991,100,-0.745320,-0.011560,-0.052132,0.099230,1,1
3999,100,-0.774436,-0.110358,-0.062596,0.069162,1,1
3993,100,-0.693536,-0.162909,-0.054557,0.057873,0,1
3975,100,-0.748206,-0.083237,0.044533,-0.050959,1,1
3994,100,-0.686619,-0.110708,0.020375,-0.016454,1,1
3990,100,-0.728691,-0.084404,-0.017742,0.020109,1,1
3967,100,-0.623406,0.076704,-0.001917,0.000942,1,0
3984,100,-0.691662,-0.130510,-0.063419,0.042801,1,1
3982,100,-0.738932,-0.082391,-0.021319,0.015931,1,1
3987,100,-0.713278,-0.051811,-0.026052,-0.022827,1,1
3969,100,-0.735237,0.018925,0.107131,0.004691,1,1
3968,100,-0.787003,0.059168,-0.013523,0.013669,1,1
3983,100,-0.683220,-0.018080,-0.043169,0.035858,1,1